C54N4Fe1                                
   1.00000000000000     
    12.4863915512393451    0.0000000000000000    0.0000000000000000
     0.0000000000000008   12.7495672503718414    0.0000000000000000
     0.0000000000000012    0.0000000000000012   20.0085552056534119
   C    N    Fe
    54     4     1
Direct
  0.0522071793986624  0.0474765013113846  0.1583341561175240
  0.1526390628090428  0.1022573134664275  0.1583253496635520
  0.1520810165206508  0.2136571025945336  0.1582771297462064
  0.0522069709493199  0.2687482792534364  0.1582125343716162
  0.2534185714271566  0.0479067674242322  0.1583662747700658
  0.3535768228351626  0.1040975391043952  0.1584153765838237
  0.3526457136513672  0.2168418635377187  0.1584385509902646
  0.2511903535569173  0.2693321302307791  0.1583458117488779
  0.4535381496965118  0.0486732519692716  0.1584173362502060
  0.5522071120991683  0.1077761723427432  0.1584292020134386
  0.5522069860043516  0.2221552205720581  0.1584236411333689
  0.4503789690512551  0.2773801243999041  0.1584236963693761
  0.6508761126117704  0.0486732513035410  0.1584183703586551
  0.7508373906477410  0.1040979221209990  0.1584176652394920
  0.7517681116695517  0.2168420596098230  0.1584395552498471
  0.6540349391491437  0.2773803977017607  0.1584219931008426
  0.8509955808451959  0.0479065826353542  0.1583699317207382
  0.9517751166367272  0.1022575646069079  0.1583280156809433
  0.9523335249622340  0.2136570747167525  0.1582799328967257
  0.8532238300016091  0.2693322124609042  0.1583489595036480
  0.0522073397738029  0.3802504315811784  0.1581449283684296
  0.1503534876853173  0.4363637957822263  0.1581720833626923
  0.1503530669046690  0.5473870773973005  0.1581556813438653
  0.0522074517612724  0.6035024959992831  0.1581264351190132
  0.2494017946786347  0.3807117297437672  0.1583313004086701
  0.3467298227457524  0.4358624786167516  0.1583809905217535
  0.3467280054533356  0.5478901915037794  0.1583484440369087
  0.2494075639496817  0.6030366816785331  0.1582856858250444
  0.7576844249834940  0.4358622582784688  0.1583796795304420
  0.7576862799214159  0.5478907247955374  0.1583466588154853
  0.8550125133957757  0.3807122900224105  0.1583351240077565
  0.9540608155195318  0.4363636669036249  0.1581771407804763
  0.9540611337412972  0.5473874250052675  0.1581607348187431
  0.8550068751376049  0.6030362465096513  0.1582892111226804
  0.0522070318455990  0.7150055258017162  0.1581971735402671
  0.1520789935334858  0.7700946153966682  0.1582604979269370
  0.0522072859076693  0.9362755317596336  0.1583370792604036
  0.2511858850451365  0.7144200478070994  0.1583010219015115
  0.3526484602885688  0.7669072717079144  0.1584018712111775
  0.3535761320975215  0.8796515878697782  0.1584065360066927
  0.2534187426354071  0.9358458767116933  0.1583646009586473
  0.4503821974485265  0.7063688199701599  0.1583768728939037
  0.5522070460710301  0.7615901801144346  0.1583927294661976
  0.5522072635753580  0.8759723241803683  0.1584238908915367
  0.4535388215494929  0.9350756931243265  0.1584164214687696
  0.6540320006319645  0.7063687413520462  0.1583743031114949
  0.7517655207510493  0.7669072300940001  0.1584020301424259
  0.7508382109011513  0.8796514519402060  0.1584083739300505
  0.6508754405143903  0.9350758307023619  0.1584172734673806
  0.8532284861023448  0.7144203107745565  0.1583036316468387
  0.9523358455134140  0.7700946699932102  0.1582630955379928
  0.8509956090173081  0.9358462144709803  0.1583681059887001
  0.1526375482222360  0.8814939471368950  0.1583246399189935
  0.9517765716456744  0.8814938933261008  0.1583271756313885
  0.4456768835649035  0.3866631711282136  0.1582053861207340
  0.4456767576690152  0.5970867842758071  0.1581545977084171
  0.6587371576170509  0.3866632788190353  0.1582012969436891
  0.6587372651499636  0.5970868501160210  0.1581494348173055
  0.5522067525266177  0.4918733262460950  0.1580843779373858
 
  0.00000000E+00  0.00000000E+00  0.00000000E+00
  0.00000000E+00  0.00000000E+00  0.00000000E+00
  0.00000000E+00  0.00000000E+00  0.00000000E+00
  0.00000000E+00  0.00000000E+00  0.00000000E+00
  0.00000000E+00  0.00000000E+00  0.00000000E+00
  0.00000000E+00  0.00000000E+00  0.00000000E+00
  0.00000000E+00  0.00000000E+00  0.00000000E+00
  0.00000000E+00  0.00000000E+00  0.00000000E+00
  0.00000000E+00  0.00000000E+00  0.00000000E+00
  0.00000000E+00  0.00000000E+00  0.00000000E+00
  0.00000000E+00  0.00000000E+00  0.00000000E+00
  0.00000000E+00  0.00000000E+00  0.00000000E+00
  0.00000000E+00  0.00000000E+00  0.00000000E+00
  0.00000000E+00  0.00000000E+00  0.00000000E+00
  0.00000000E+00  0.00000000E+00  0.00000000E+00
  0.00000000E+00  0.00000000E+00  0.00000000E+00
  0.00000000E+00  0.00000000E+00  0.00000000E+00
  0.00000000E+00  0.00000000E+00  0.00000000E+00
  0.00000000E+00  0.00000000E+00  0.00000000E+00
  0.00000000E+00  0.00000000E+00  0.00000000E+00
  0.00000000E+00  0.00000000E+00  0.00000000E+00
  0.00000000E+00  0.00000000E+00  0.00000000E+00
  0.00000000E+00  0.00000000E+00  0.00000000E+00
  0.00000000E+00  0.00000000E+00  0.00000000E+00
  0.00000000E+00  0.00000000E+00  0.00000000E+00
  0.00000000E+00  0.00000000E+00  0.00000000E+00
  0.00000000E+00  0.00000000E+00  0.00000000E+00
  0.00000000E+00  0.00000000E+00  0.00000000E+00
  0.00000000E+00  0.00000000E+00  0.00000000E+00
  0.00000000E+00  0.00000000E+00  0.00000000E+00
  0.00000000E+00  0.00000000E+00  0.00000000E+00
  0.00000000E+00  0.00000000E+00  0.00000000E+00
  0.00000000E+00  0.00000000E+00  0.00000000E+00
  0.00000000E+00  0.00000000E+00  0.00000000E+00
  0.00000000E+00  0.00000000E+00  0.00000000E+00
  0.00000000E+00  0.00000000E+00  0.00000000E+00
  0.00000000E+00  0.00000000E+00  0.00000000E+00
  0.00000000E+00  0.00000000E+00  0.00000000E+00
  0.00000000E+00  0.00000000E+00  0.00000000E+00
  0.00000000E+00  0.00000000E+00  0.00000000E+00
  0.00000000E+00  0.00000000E+00  0.00000000E+00
  0.00000000E+00  0.00000000E+00  0.00000000E+00
  0.00000000E+00  0.00000000E+00  0.00000000E+00
  0.00000000E+00  0.00000000E+00  0.00000000E+00
  0.00000000E+00  0.00000000E+00  0.00000000E+00
  0.00000000E+00  0.00000000E+00  0.00000000E+00
  0.00000000E+00  0.00000000E+00  0.00000000E+00
  0.00000000E+00  0.00000000E+00  0.00000000E+00
  0.00000000E+00  0.00000000E+00  0.00000000E+00
  0.00000000E+00  0.00000000E+00  0.00000000E+00
  0.00000000E+00  0.00000000E+00  0.00000000E+00
  0.00000000E+00  0.00000000E+00  0.00000000E+00
  0.00000000E+00  0.00000000E+00  0.00000000E+00
  0.00000000E+00  0.00000000E+00  0.00000000E+00
  0.00000000E+00  0.00000000E+00  0.00000000E+00
  0.00000000E+00  0.00000000E+00  0.00000000E+00
  0.00000000E+00  0.00000000E+00  0.00000000E+00
  0.00000000E+00  0.00000000E+00  0.00000000E+00
  0.00000000E+00  0.00000000E+00  0.00000000E+00
