C54N4Fe1                                
   1.00000000000000     
    12.4863915512393451    0.0000000000000000    0.0000000000000000
     0.0000000000000008   12.7495672503718414    0.0000000000000000
     0.0000000000000012    0.0000000000000012   20.0085552056534119
   C    N    Fe
    54     4     1
Direct
  0.0522071909911488  0.0474813154152500  0.1583099218013551
  0.1525975963083001  0.1022478436642994  0.1583199892102722
  0.1520378291775862  0.2136314269948169  0.1582842601480280
  0.0522072551243276  0.2687155292234589  0.1582627891971045
  0.2534015128160376  0.0478896048840800  0.1583786115415048
  0.3535411147957989  0.1040634664817734  0.1583676549333532
  0.3525903638266946  0.2168291484880069  0.1582654640543091
  0.2511918875646630  0.2693162591069731  0.1582721431378467
  0.4534941483138974  0.0486884942455705  0.1584076538943733
  0.5522072643432689  0.1078133897732775  0.1584135870748127
  0.5522071448652270  0.2221519752508492  0.1583652502981851
  0.4503279586777024  0.2773271395050324  0.1582683983751100
  0.6509201944603965  0.0486885092622455  0.1584086854242537
  0.7508733133495490  0.1040635951714437  0.1583696864611631
  0.7518237307480751  0.2168293108953250  0.1582669801860621
  0.6540860340936766  0.2773273876241951  0.1582685275832598
  0.8510127087713056  0.0478897814959709  0.1583812057749400
  0.9518167275445351  0.1022478224099984  0.1583218325259458
  0.9523764410562657  0.2136313244812268  0.1582860341049562
  0.8532222356437755  0.2693165149993930  0.1582742458000986
  0.0522072584799155  0.3803000976699910  0.1582892589537789
  0.1503556801117897  0.4363511962529382  0.1582975323999016
  0.1503597867672755  0.5474006982766079  0.1582859986894334
  0.0522072371420969  0.6034483937668169  0.1582694985990485
  0.2493943409292867  0.3806785865591851  0.1582510342623447
  0.3467627695741023  0.4357562133961916  0.1581514204303067
  0.3467664199426157  0.5479922025772753  0.1581377201403571
  0.2493883965459759  0.6030738249826931  0.1582274015249584
  0.7576514372386790  0.4357564992819077  0.1581513660371951
  0.7576475812402704  0.5479920150803692  0.1581374882118797
  0.8550199459960612  0.3806786491339790  0.1582526717990402
  0.9540584096212238  0.4363514096396604  0.1582991576830562
  0.9540544881437532  0.5474005488351691  0.1582875041533640
  0.8550255700687055  0.6030738073793220  0.1582287050544815
  0.0522073220025618  0.7150379117648070  0.1582372054133392
  0.1520373092965872  0.7701183707878805  0.1582600347549667
  0.0522071703624532  0.9362685807221763  0.1583044710679063
  0.2511933829305242  0.7144349456587420  0.1582413571923609
  0.3525885603756654  0.7669184812435820  0.1582349396504840
  0.3535410317971685  0.8796865056792643  0.1583503647671899
  0.2533993439015833  0.9358614953406332  0.1583712183979553
  0.4503295176707057  0.7064256449551224  0.1582356396131603
  0.5522072134723579  0.7615983995749256  0.1583325078657150
  0.5522073163211569  0.8759336618532478  0.1583939817879735
  0.4534961912100083  0.9350640275711197  0.1583980791928556
  0.6540843805646775  0.7064251951677398  0.1582354774979098
  0.7518256367288301  0.7669182338171152  0.1582359497679090
  0.7508734587433316  0.8796864749007545  0.1583520709505399
  0.6509180793222833  0.9350641063146311  0.1583990018394415
  0.8532207280070048  0.7144349744872747  0.1582429284297206
  0.9523769210789557  0.7701184911525206  0.1582614624879525
  0.8510149236829884  0.9358613676950313  0.1583736386571707
  0.1525969804003946  0.8815041551828193  0.1583075809747309
  0.9518172566055940  0.8815042027749023  0.1583092123322976
  0.4455460477526197  0.3866226739380731  0.1580047192176948
  0.4455438553825052  0.5971255285120085  0.1579818911927455
  0.6588680315823112  0.3866223260651776  0.1580041215281670
  0.6588703257753702  0.5971261200868800  0.1579810008722966
  0.5522070407583817  0.4918741425483061  0.1611214650814509
 
  0.00000000E+00  0.00000000E+00  0.00000000E+00
  0.00000000E+00  0.00000000E+00  0.00000000E+00
  0.00000000E+00  0.00000000E+00  0.00000000E+00
  0.00000000E+00  0.00000000E+00  0.00000000E+00
  0.00000000E+00  0.00000000E+00  0.00000000E+00
  0.00000000E+00  0.00000000E+00  0.00000000E+00
  0.00000000E+00  0.00000000E+00  0.00000000E+00
  0.00000000E+00  0.00000000E+00  0.00000000E+00
  0.00000000E+00  0.00000000E+00  0.00000000E+00
  0.00000000E+00  0.00000000E+00  0.00000000E+00
  0.00000000E+00  0.00000000E+00  0.00000000E+00
  0.00000000E+00  0.00000000E+00  0.00000000E+00
  0.00000000E+00  0.00000000E+00  0.00000000E+00
  0.00000000E+00  0.00000000E+00  0.00000000E+00
  0.00000000E+00  0.00000000E+00  0.00000000E+00
  0.00000000E+00  0.00000000E+00  0.00000000E+00
  0.00000000E+00  0.00000000E+00  0.00000000E+00
  0.00000000E+00  0.00000000E+00  0.00000000E+00
  0.00000000E+00  0.00000000E+00  0.00000000E+00
  0.00000000E+00  0.00000000E+00  0.00000000E+00
  0.00000000E+00  0.00000000E+00  0.00000000E+00
  0.00000000E+00  0.00000000E+00  0.00000000E+00
  0.00000000E+00  0.00000000E+00  0.00000000E+00
  0.00000000E+00  0.00000000E+00  0.00000000E+00
  0.00000000E+00  0.00000000E+00  0.00000000E+00
  0.00000000E+00  0.00000000E+00  0.00000000E+00
  0.00000000E+00  0.00000000E+00  0.00000000E+00
  0.00000000E+00  0.00000000E+00  0.00000000E+00
  0.00000000E+00  0.00000000E+00  0.00000000E+00
  0.00000000E+00  0.00000000E+00  0.00000000E+00
  0.00000000E+00  0.00000000E+00  0.00000000E+00
  0.00000000E+00  0.00000000E+00  0.00000000E+00
  0.00000000E+00  0.00000000E+00  0.00000000E+00
  0.00000000E+00  0.00000000E+00  0.00000000E+00
  0.00000000E+00  0.00000000E+00  0.00000000E+00
  0.00000000E+00  0.00000000E+00  0.00000000E+00
  0.00000000E+00  0.00000000E+00  0.00000000E+00
  0.00000000E+00  0.00000000E+00  0.00000000E+00
  0.00000000E+00  0.00000000E+00  0.00000000E+00
  0.00000000E+00  0.00000000E+00  0.00000000E+00
  0.00000000E+00  0.00000000E+00  0.00000000E+00
  0.00000000E+00  0.00000000E+00  0.00000000E+00
  0.00000000E+00  0.00000000E+00  0.00000000E+00
  0.00000000E+00  0.00000000E+00  0.00000000E+00
  0.00000000E+00  0.00000000E+00  0.00000000E+00
  0.00000000E+00  0.00000000E+00  0.00000000E+00
  0.00000000E+00  0.00000000E+00  0.00000000E+00
  0.00000000E+00  0.00000000E+00  0.00000000E+00
  0.00000000E+00  0.00000000E+00  0.00000000E+00
  0.00000000E+00  0.00000000E+00  0.00000000E+00
  0.00000000E+00  0.00000000E+00  0.00000000E+00
  0.00000000E+00  0.00000000E+00  0.00000000E+00
  0.00000000E+00  0.00000000E+00  0.00000000E+00
  0.00000000E+00  0.00000000E+00  0.00000000E+00
  0.00000000E+00  0.00000000E+00  0.00000000E+00
  0.00000000E+00  0.00000000E+00  0.00000000E+00
  0.00000000E+00  0.00000000E+00  0.00000000E+00
  0.00000000E+00  0.00000000E+00  0.00000000E+00
  0.00000000E+00  0.00000000E+00  0.00000000E+00
