C54N4Fe1                                
   1.00000000000000     
    12.4863915512393451    0.0000000000000000    0.0000000000000000
     0.0000000000000008   12.7495672503718414    0.0000000000000000
     0.0000000000000012    0.0000000000000012   20.0085552056534119
   C    N    Fe
    54     4     1
Direct
  0.0522067366356026  0.0475097945955172  0.1583467108381049
  0.1526047995132565  0.1022553129542780  0.1583337979519187
  0.1520201923122907  0.2136298845788107  0.1582890433183476
  0.0522080176107926  0.2687057604237129  0.1582347334718928
  0.2533963961545682  0.0478742253014987  0.1583513233276603
  0.3535498084575854  0.1040569785345742  0.1583946774080236
  0.3525834745108444  0.2168450053549467  0.1584364937290954
  0.2512142109656436  0.2693183790321009  0.1583253110644729
  0.4534902090583999  0.0486765765300114  0.1584220823988764
  0.5522072158353786  0.1078123770237751  0.1584159213863078
  0.5522068860946604  0.2221592296346834  0.1584376056412954
  0.4503278195770864  0.2773222773318698  0.1584999984483461
  0.6509239743644052  0.0486770374057325  0.1584233753959791
  0.7508642325965698  0.1040570245814026  0.1583973861468833
  0.7518311115413504  0.2168452655977597  0.1584371712520491
  0.6540855951468707  0.2773228929676326  0.1584969678856979
  0.8510177977999224  0.0478763889150461  0.1583556583881078
  0.9518096527821244  0.1022547013627229  0.1583366213237966
  0.9523928666337625  0.2136297501155597  0.1582920782845240
  0.8531997152221126  0.2693192511222550  0.1583289385313440
  0.0522064411771372  0.3803132584532995  0.1581231743552139
  0.1503691107937314  0.4363378474878029  0.1581034925214210
  0.1503500565334125  0.5474112593200146  0.1580850880908264
  0.0522065372589904  0.6034380651673956  0.1581125371579940
  0.2493936161632071  0.3806831445179720  0.1582570336592072
  0.3467748575459287  0.4357335221181570  0.1584372138253456
  0.3467992558224032  0.5480109908085163  0.1583865201866080
  0.2493696042994616  0.6030742441790844  0.1581905302484310
  0.7576392076884867  0.4357334507471134  0.1584354593705725
  0.7576149721409557  0.5480113468466272  0.1583841474483440
  0.8550200647358156  0.3806830759031493  0.1582624265879834
  0.9540462687463287  0.4363376570583355  0.1581106062761597
  0.9540658137244447  0.5474115229313471  0.1580923347494366
  0.8550439917824806  0.6030749746528116  0.1581957613375722
  0.0522083334421942  0.7150421846840990  0.1582325061582446
  0.1520281791653822  0.7701216610803491  0.1582788158875295
  0.0522063662156866  0.9362572345561239  0.1583530059692608
  0.2512092819464352  0.7144385691249745  0.1582701532741143
  0.3525675307115580  0.7669103787091343  0.1583994499753118
  0.3535461968457499  0.8797061881939212  0.1583921025761284
  0.2533953143211194  0.9358745921130374  0.1583515174632315
  0.4503280832391473  0.7064098916582346  0.1584500242114510
  0.5522072303629676  0.7616091578344339  0.1584201411231550
  0.5522073052768496  0.8759295450868574  0.1584256079852199
  0.4534910611188021  0.9350632794762229  0.1584280770868441
  0.6540857478822429  0.7064097805821755  0.1584456879357506
  0.7518475497463157  0.7669108038904803  0.1583990109461783
  0.7508679847189071  0.8797064927400911  0.1583941906899700
  0.6509235665943782  0.9350630500374337  0.1584290904748255
  0.8532050946968978  0.7144378280852862  0.1582732532250138
  0.9523851804816525  0.7701222634800250  0.1582816671146997
  0.8510187762989097  0.9358727777109169  0.1583556307202916
  0.1526100128283716  0.8814942146902512  0.1583379795028766
  0.9518051924810630  0.8814951254578682  0.1583406323297760
  0.4455592870232005  0.3866439759344064  0.1587949635361888
  0.4455551453815262  0.5971007401685033  0.1587207340888142
  0.6588546418206028  0.3866444576656371  0.1587882051482625
  0.6588591134115042  0.5971006735293524  0.1587126121547711
  0.5522073127625288  0.4918726599546969  0.1559227184142661
 
  0.00000000E+00  0.00000000E+00  0.00000000E+00
  0.00000000E+00  0.00000000E+00  0.00000000E+00
  0.00000000E+00  0.00000000E+00  0.00000000E+00
  0.00000000E+00  0.00000000E+00  0.00000000E+00
  0.00000000E+00  0.00000000E+00  0.00000000E+00
  0.00000000E+00  0.00000000E+00  0.00000000E+00
  0.00000000E+00  0.00000000E+00  0.00000000E+00
  0.00000000E+00  0.00000000E+00  0.00000000E+00
  0.00000000E+00  0.00000000E+00  0.00000000E+00
  0.00000000E+00  0.00000000E+00  0.00000000E+00
  0.00000000E+00  0.00000000E+00  0.00000000E+00
  0.00000000E+00  0.00000000E+00  0.00000000E+00
  0.00000000E+00  0.00000000E+00  0.00000000E+00
  0.00000000E+00  0.00000000E+00  0.00000000E+00
  0.00000000E+00  0.00000000E+00  0.00000000E+00
  0.00000000E+00  0.00000000E+00  0.00000000E+00
  0.00000000E+00  0.00000000E+00  0.00000000E+00
  0.00000000E+00  0.00000000E+00  0.00000000E+00
  0.00000000E+00  0.00000000E+00  0.00000000E+00
  0.00000000E+00  0.00000000E+00  0.00000000E+00
  0.00000000E+00  0.00000000E+00  0.00000000E+00
  0.00000000E+00  0.00000000E+00  0.00000000E+00
  0.00000000E+00  0.00000000E+00  0.00000000E+00
  0.00000000E+00  0.00000000E+00  0.00000000E+00
  0.00000000E+00  0.00000000E+00  0.00000000E+00
  0.00000000E+00  0.00000000E+00  0.00000000E+00
  0.00000000E+00  0.00000000E+00  0.00000000E+00
  0.00000000E+00  0.00000000E+00  0.00000000E+00
  0.00000000E+00  0.00000000E+00  0.00000000E+00
  0.00000000E+00  0.00000000E+00  0.00000000E+00
  0.00000000E+00  0.00000000E+00  0.00000000E+00
  0.00000000E+00  0.00000000E+00  0.00000000E+00
  0.00000000E+00  0.00000000E+00  0.00000000E+00
  0.00000000E+00  0.00000000E+00  0.00000000E+00
  0.00000000E+00  0.00000000E+00  0.00000000E+00
  0.00000000E+00  0.00000000E+00  0.00000000E+00
  0.00000000E+00  0.00000000E+00  0.00000000E+00
  0.00000000E+00  0.00000000E+00  0.00000000E+00
  0.00000000E+00  0.00000000E+00  0.00000000E+00
  0.00000000E+00  0.00000000E+00  0.00000000E+00
  0.00000000E+00  0.00000000E+00  0.00000000E+00
  0.00000000E+00  0.00000000E+00  0.00000000E+00
  0.00000000E+00  0.00000000E+00  0.00000000E+00
  0.00000000E+00  0.00000000E+00  0.00000000E+00
  0.00000000E+00  0.00000000E+00  0.00000000E+00
  0.00000000E+00  0.00000000E+00  0.00000000E+00
  0.00000000E+00  0.00000000E+00  0.00000000E+00
  0.00000000E+00  0.00000000E+00  0.00000000E+00
  0.00000000E+00  0.00000000E+00  0.00000000E+00
  0.00000000E+00  0.00000000E+00  0.00000000E+00
  0.00000000E+00  0.00000000E+00  0.00000000E+00
  0.00000000E+00  0.00000000E+00  0.00000000E+00
  0.00000000E+00  0.00000000E+00  0.00000000E+00
  0.00000000E+00  0.00000000E+00  0.00000000E+00
  0.00000000E+00  0.00000000E+00  0.00000000E+00
  0.00000000E+00  0.00000000E+00  0.00000000E+00
  0.00000000E+00  0.00000000E+00  0.00000000E+00
  0.00000000E+00  0.00000000E+00  0.00000000E+00
  0.00000000E+00  0.00000000E+00  0.00000000E+00
