C54N4Fe1                                
   1.00000000000000     
    12.4863915512393451    0.0000000000000000    0.0000000000000000
     0.0000000000000008   12.7495672503718414    0.0000000000000000
     0.0000000000000012    0.0000000000000012   20.0085552056534119
   C    N    Fe
    54     4     1
Direct
  0.0522071326043216  0.0475183191778989  0.1583780395481368
  0.1525333171816307  0.1022251110655341  0.1583618211040380
  0.1519520569683498  0.2135794474197748  0.1583149801982225
  0.0522069525361986  0.2686512660256481  0.1582416584269492
  0.2533679329810034  0.0478521029931668  0.1583724377488256
  0.3534765081579229  0.1039700030639795  0.1584544029126427
  0.3524739167050871  0.2168168486097942  0.1585623744972275
  0.2512229415464702  0.2692751459611833  0.1583812327173820
  0.4534085876850696  0.0486934017043634  0.1584463724701372
  0.5522072751061158  0.1078946647710506  0.1584288919069515
  0.5522069818921616  0.2221129366879365  0.1584355726672294
  0.4502411266675425  0.2772514044317612  0.1585681540248519
  0.6510057035065663  0.0486934048147191  0.1584474330162307
  0.7509377345911497  0.1039704555757720  0.1584567878526940
  0.7519399151749473  0.2168170701658369  0.1585632042633678
  0.6541731640119228  0.2772516953923823  0.1585657497256363
  0.8510460660640248  0.0478519079142782  0.1583762693150819
  0.9518807225026996  0.1022253829559548  0.1583646600831038
  0.9524624484434449  0.2135794329739588  0.1583179786025018
  0.8531912904849076  0.2692751739059063  0.1583843703134714
  0.0522074591512806  0.3803901434548005  0.1580981737366145
  0.1503765611063474  0.4363485927064253  0.1580801207559866
  0.1503727960266660  0.5474020510522750  0.1580637777904250
  0.0522074653223723  0.6033597614309368  0.1580757476886242
  0.2493821522680255  0.3805928681264312  0.1583125751867777
  0.3468967061480939  0.4355503866776763  0.1585398393296510
  0.3468924460588982  0.5482015789637312  0.1585199024771270
  0.2493869580193524  0.6031560159990671  0.1582770512942056
  0.7575180070910663  0.4355498750063462  0.1585371987532905
  0.7575222274453914  0.5482022626155022  0.1585169752099709
  0.8550320799098163  0.3805936886499782  0.1583160227432974
  0.9540377326086098  0.4363482119421275  0.1580849736288151
  0.9540415616564684  0.5474025569229565  0.1580685739280424
  0.8550272444631738  0.6031551646826766  0.1582801498832743
  0.0522069879688148  0.7150995236455663  0.1582215470110171
  0.1519539185023709  0.7701725137458189  0.1582976838459374
  0.0522072180901851  0.9362342765669746  0.1583797880002152
  0.2512189123776954  0.7144763884870013  0.1583459512691359
  0.3524759985586013  0.7669329606454424  0.1585389505088939
  0.3534740582216012  0.8797806871783758  0.1584492108333675
  0.2533696290370853  0.9358990192603973  0.1583709867001895
  0.4502392307474293  0.7064991993079083  0.1585459904369246
  0.5522071340632609  0.7616366199135478  0.1584259107842562
  0.5522073453666364  0.8758547215735296  0.1584307961629340
  0.4534093328874527  0.9350562439176558  0.1584476487164345
  0.6541751457796251  0.7064990091332984  0.1585430854453970
  0.7519379720024221  0.7669324969693542  0.1585390702008687
  0.7509402953551955  0.8797802371308191  0.1584511245804965
  0.6510048235413175  0.9350563198030575  0.1584484963829011
  0.8531953420264737  0.7144765781016267  0.1583484950029629
  0.9524607747873851  0.7701724325911847  0.1583003459753620
  0.8510444977713001  0.9358992250178593  0.1583746170877027
  0.1525319705501450  0.8815261484929192  0.1583600493808197
  0.9518820095881670  0.8815259606218501  0.1583626767939368
  0.4453308247031216  0.3865308283622380  0.1588192293382996
  0.4453305817867335  0.5972189529850247  0.1587947316375941
  0.6590830301430067  0.3865311479798540  0.1588134459923054
  0.6590832084042162  0.5972183774560872  0.1587885073428015
  0.5522065856526633  0.4918717972708079  0.1533381867684765
 
  0.00000000E+00  0.00000000E+00  0.00000000E+00
  0.00000000E+00  0.00000000E+00  0.00000000E+00
  0.00000000E+00  0.00000000E+00  0.00000000E+00
  0.00000000E+00  0.00000000E+00  0.00000000E+00
  0.00000000E+00  0.00000000E+00  0.00000000E+00
  0.00000000E+00  0.00000000E+00  0.00000000E+00
  0.00000000E+00  0.00000000E+00  0.00000000E+00
  0.00000000E+00  0.00000000E+00  0.00000000E+00
  0.00000000E+00  0.00000000E+00  0.00000000E+00
  0.00000000E+00  0.00000000E+00  0.00000000E+00
  0.00000000E+00  0.00000000E+00  0.00000000E+00
  0.00000000E+00  0.00000000E+00  0.00000000E+00
  0.00000000E+00  0.00000000E+00  0.00000000E+00
  0.00000000E+00  0.00000000E+00  0.00000000E+00
  0.00000000E+00  0.00000000E+00  0.00000000E+00
  0.00000000E+00  0.00000000E+00  0.00000000E+00
  0.00000000E+00  0.00000000E+00  0.00000000E+00
  0.00000000E+00  0.00000000E+00  0.00000000E+00
  0.00000000E+00  0.00000000E+00  0.00000000E+00
  0.00000000E+00  0.00000000E+00  0.00000000E+00
  0.00000000E+00  0.00000000E+00  0.00000000E+00
  0.00000000E+00  0.00000000E+00  0.00000000E+00
  0.00000000E+00  0.00000000E+00  0.00000000E+00
  0.00000000E+00  0.00000000E+00  0.00000000E+00
  0.00000000E+00  0.00000000E+00  0.00000000E+00
  0.00000000E+00  0.00000000E+00  0.00000000E+00
  0.00000000E+00  0.00000000E+00  0.00000000E+00
  0.00000000E+00  0.00000000E+00  0.00000000E+00
  0.00000000E+00  0.00000000E+00  0.00000000E+00
  0.00000000E+00  0.00000000E+00  0.00000000E+00
  0.00000000E+00  0.00000000E+00  0.00000000E+00
  0.00000000E+00  0.00000000E+00  0.00000000E+00
  0.00000000E+00  0.00000000E+00  0.00000000E+00
  0.00000000E+00  0.00000000E+00  0.00000000E+00
  0.00000000E+00  0.00000000E+00  0.00000000E+00
  0.00000000E+00  0.00000000E+00  0.00000000E+00
  0.00000000E+00  0.00000000E+00  0.00000000E+00
  0.00000000E+00  0.00000000E+00  0.00000000E+00
  0.00000000E+00  0.00000000E+00  0.00000000E+00
  0.00000000E+00  0.00000000E+00  0.00000000E+00
  0.00000000E+00  0.00000000E+00  0.00000000E+00
  0.00000000E+00  0.00000000E+00  0.00000000E+00
  0.00000000E+00  0.00000000E+00  0.00000000E+00
  0.00000000E+00  0.00000000E+00  0.00000000E+00
  0.00000000E+00  0.00000000E+00  0.00000000E+00
  0.00000000E+00  0.00000000E+00  0.00000000E+00
  0.00000000E+00  0.00000000E+00  0.00000000E+00
  0.00000000E+00  0.00000000E+00  0.00000000E+00
  0.00000000E+00  0.00000000E+00  0.00000000E+00
  0.00000000E+00  0.00000000E+00  0.00000000E+00
  0.00000000E+00  0.00000000E+00  0.00000000E+00
  0.00000000E+00  0.00000000E+00  0.00000000E+00
  0.00000000E+00  0.00000000E+00  0.00000000E+00
  0.00000000E+00  0.00000000E+00  0.00000000E+00
  0.00000000E+00  0.00000000E+00  0.00000000E+00
  0.00000000E+00  0.00000000E+00  0.00000000E+00
  0.00000000E+00  0.00000000E+00  0.00000000E+00
  0.00000000E+00  0.00000000E+00  0.00000000E+00
  0.00000000E+00  0.00000000E+00  0.00000000E+00
