C54N4Fe1                                
   1.00000000000000     
    12.4863915512393451    0.0000000000000000    0.0000000000000000
     0.0000000000000008   12.7495672503718414    0.0000000000000000
     0.0000000000000012    0.0000000000000012   20.0085552056534119
   C    N    Fe
    54     4     1
Direct
  0.0522068088364181  0.0474839601623861  0.1583424414796382
  0.1526285547170994  0.1022498851245326  0.1583294620739808
  0.1520817107933652  0.2136548439628641  0.1582794827911110
  0.0522072656275805  0.2687521301590736  0.1582291739527973
  0.2534022166177816  0.0479084814420161  0.1583503707560055
  0.3535585888638336  0.1041066924986262  0.1583878205851747
  0.3526551651593202  0.2168351925329643  0.1584253608195597
  0.2511789967883073  0.2693108050237307  0.1583165920021381
  0.4535343782690088  0.0486661282531365  0.1584153587420577
  0.5522071223413703  0.1077772299078397  0.1584098193782891
  0.5522074643957561  0.2221578036593810  0.1584307124877693
  0.4503670604331407  0.2773643455301972  0.1584862865018641
  0.6508803746166703  0.0486668321653099  0.1584168142439585
  0.7508553765601093  0.1041070659993020  0.1583908453772820
  0.7517583879353287  0.2168367502868687  0.1584258603676492
  0.6540461264020888  0.2773649891597413  0.1584824784449861
  0.8510115186931112  0.0479093671252852  0.1583550756527234
  0.9517852603305965  0.1022499487935278  0.1583322067142943
  0.9523316179268289  0.2136556446153940  0.1582824376122308
  0.8532353221433376  0.2693113581672870  0.1583203757698973
  0.0522072523588639  0.3802565280467997  0.1581271872576033
  0.1503496944339565  0.4363413976313540  0.1581158745553263
  0.1503825664485281  0.5474055891186197  0.1580957508556518
  0.0522071469592391  0.6034943179154689  0.1581255967443000
  0.2494120446918458  0.3807274289324382  0.1582756213205316
  0.3467034859033640  0.4358481363481160  0.1584428745668864
  0.3467072756950858  0.5479033366835467  0.1583767221445182
  0.2494096563642111  0.6030194854777727  0.1581951465891051
  0.7577101752984423  0.4358505153850032  0.1584410429903648
  0.7577065701876052  0.5479018138065770  0.1583744102338694
  0.8550027258432383  0.3807267671617179  0.1582818412443060
  0.9540651912647334  0.4363432737818738  0.1581239945163547
  0.9540326255876678  0.5474043096796819  0.1581040491958965
  0.8550055418958651  0.6030210898710505  0.1582012874547214
  0.0522077765711247  0.7150107232651747  0.1582361026487397
  0.1520629144545015  0.7701028714344573  0.1582734628068413
  0.0522066823573939  0.9362759491672383  0.1583494162953620
  0.2511863163814891  0.7144313873363539  0.1582559950399689
  0.3526528656215766  0.7669056800485025  0.1583912087118645
  0.3535576758151867  0.8796260100852585  0.1583871904385066
  0.2533966961061743  0.9358489753139797  0.1583502318871140
  0.4503658393683208  0.7063852435712901  0.1584388424521166
  0.5522078045954958  0.7615690585142260  0.1584261802262857
  0.5522069764116737  0.8759587321924795  0.1584272311178108
  0.4535287287844814  0.9350751444940941  0.1584232850889468
  0.6540477993716991  0.7063848722740492  0.1584336915475654
  0.7517614438780448  0.7669048928248013  0.1583905367699541
  0.7508564743283878  0.8796262955678779  0.1583894983489185
  0.6508865274968501  0.9350749844818684  0.1584244302313683
  0.8532289822863768  0.7144311338517069  0.1582593012800612
  0.9523504888037916  0.7701023749765409  0.1582763193443044
  0.8510173398902430  0.9358490151557494  0.1583546665890452
  0.1526236213043387  0.8815216120430720  0.1583353329145030
  0.9517909220575292  0.8815216792701617  0.1583379171272176
  0.4456620330408649  0.3866502512529067  0.1586129791771447
  0.4456405818260253  0.5971258187442788  0.1585234217278906
  0.6587524355804619  0.3866502630806453  0.1586048907587002
  0.6587740962583857  0.5971263828483208  0.1585137437374723
  0.5522057070258883  0.4918672037955101  0.1568237483094692
 
  0.00000000E+00  0.00000000E+00  0.00000000E+00
  0.00000000E+00  0.00000000E+00  0.00000000E+00
  0.00000000E+00  0.00000000E+00  0.00000000E+00
  0.00000000E+00  0.00000000E+00  0.00000000E+00
  0.00000000E+00  0.00000000E+00  0.00000000E+00
  0.00000000E+00  0.00000000E+00  0.00000000E+00
  0.00000000E+00  0.00000000E+00  0.00000000E+00
  0.00000000E+00  0.00000000E+00  0.00000000E+00
  0.00000000E+00  0.00000000E+00  0.00000000E+00
  0.00000000E+00  0.00000000E+00  0.00000000E+00
  0.00000000E+00  0.00000000E+00  0.00000000E+00
  0.00000000E+00  0.00000000E+00  0.00000000E+00
  0.00000000E+00  0.00000000E+00  0.00000000E+00
  0.00000000E+00  0.00000000E+00  0.00000000E+00
  0.00000000E+00  0.00000000E+00  0.00000000E+00
  0.00000000E+00  0.00000000E+00  0.00000000E+00
  0.00000000E+00  0.00000000E+00  0.00000000E+00
  0.00000000E+00  0.00000000E+00  0.00000000E+00
  0.00000000E+00  0.00000000E+00  0.00000000E+00
  0.00000000E+00  0.00000000E+00  0.00000000E+00
  0.00000000E+00  0.00000000E+00  0.00000000E+00
  0.00000000E+00  0.00000000E+00  0.00000000E+00
  0.00000000E+00  0.00000000E+00  0.00000000E+00
  0.00000000E+00  0.00000000E+00  0.00000000E+00
  0.00000000E+00  0.00000000E+00  0.00000000E+00
  0.00000000E+00  0.00000000E+00  0.00000000E+00
  0.00000000E+00  0.00000000E+00  0.00000000E+00
  0.00000000E+00  0.00000000E+00  0.00000000E+00
  0.00000000E+00  0.00000000E+00  0.00000000E+00
  0.00000000E+00  0.00000000E+00  0.00000000E+00
  0.00000000E+00  0.00000000E+00  0.00000000E+00
  0.00000000E+00  0.00000000E+00  0.00000000E+00
  0.00000000E+00  0.00000000E+00  0.00000000E+00
  0.00000000E+00  0.00000000E+00  0.00000000E+00
  0.00000000E+00  0.00000000E+00  0.00000000E+00
  0.00000000E+00  0.00000000E+00  0.00000000E+00
  0.00000000E+00  0.00000000E+00  0.00000000E+00
  0.00000000E+00  0.00000000E+00  0.00000000E+00
  0.00000000E+00  0.00000000E+00  0.00000000E+00
  0.00000000E+00  0.00000000E+00  0.00000000E+00
  0.00000000E+00  0.00000000E+00  0.00000000E+00
  0.00000000E+00  0.00000000E+00  0.00000000E+00
  0.00000000E+00  0.00000000E+00  0.00000000E+00
  0.00000000E+00  0.00000000E+00  0.00000000E+00
  0.00000000E+00  0.00000000E+00  0.00000000E+00
  0.00000000E+00  0.00000000E+00  0.00000000E+00
  0.00000000E+00  0.00000000E+00  0.00000000E+00
  0.00000000E+00  0.00000000E+00  0.00000000E+00
  0.00000000E+00  0.00000000E+00  0.00000000E+00
  0.00000000E+00  0.00000000E+00  0.00000000E+00
  0.00000000E+00  0.00000000E+00  0.00000000E+00
  0.00000000E+00  0.00000000E+00  0.00000000E+00
  0.00000000E+00  0.00000000E+00  0.00000000E+00
  0.00000000E+00  0.00000000E+00  0.00000000E+00
  0.00000000E+00  0.00000000E+00  0.00000000E+00
  0.00000000E+00  0.00000000E+00  0.00000000E+00
  0.00000000E+00  0.00000000E+00  0.00000000E+00
  0.00000000E+00  0.00000000E+00  0.00000000E+00
  0.00000000E+00  0.00000000E+00  0.00000000E+00
