C54N4Fe1                                
   1.00000000000000     
    12.4863915512393451    0.0000000000000000    0.0000000000000000
     0.0000000000000008   12.7495672503718414    0.0000000000000000
     0.0000000000000012    0.0000000000000012   20.0085552056534119
   C    N    Fe
    54     4     1
Direct
  0.0522067825159451  0.0474841435239457  0.1583433374964176
  0.1526300727422962  0.1022502129838706  0.1583298345335459
  0.1520836006864683  0.2136561082467990  0.1582769093289232
  0.0522073174541314  0.2687531488047107  0.1582263965299889
  0.2534012217197827  0.0479099176389738  0.1583508598621511
  0.3535602125089508  0.1041094815511007  0.1583899278480300
  0.3526583238039427  0.2168369214233740  0.1584342420680099
  0.2511816409319055  0.2693104762376003  0.1583171077808928
  0.4535338849081817  0.0486668838813260  0.1584134047122119
  0.5522070828525938  0.1077800710631523  0.1584092514655663
  0.5522074284057178  0.2221582290057768  0.1584294535947056
  0.4503718057599009  0.2773695929941469  0.1584932071552507
  0.6508808724772421  0.0486675607737456  0.1584148524145401
  0.7508537761925529  0.1041098109131648  0.1583929161858805
  0.7517552617715131  0.2168383785620354  0.1584346831884080
  0.6540412743896150  0.2773701902431054  0.1584893340903164
  0.8510125519630387  0.0479107317343560  0.1583555132750455
  0.9517838555628292  0.1022502720640537  0.1583325606730320
  0.9523297380702607  0.2136568812958823  0.1582798399876511
  0.8532328122202368  0.2693110648901945  0.1583208919179840
  0.0522072867444813  0.3802557196033994  0.1581287413188548
  0.1503516758478077  0.4363409961904939  0.1581201393508378
  0.1503833507928522  0.5474042954030670  0.1581000021273202
  0.0522071984609203  0.6034945116256775  0.1581271533451104
  0.2494166936266040  0.3807293331457998  0.1582903344028127
  0.3467086425376553  0.4358487793673231  0.1584558625400191
  0.3467108337631704  0.5478988682552217  0.1583896475085181
  0.2494130337988673  0.6030164466104244  0.1582100432438059
  0.7577048964336832  0.4358511366004332  0.1584540992478126
  0.7577029244485556  0.5478973474963590  0.1583872614259712
  0.8549981262944036  0.3807286324060694  0.1582966205611991
  0.9540631868425319  0.4363429052429277  0.1581282879227679
  0.9540319475976957  0.5474029418397450  0.1581083277460373
  0.8550021190460321  0.6030180245234784  0.1582161827256145
  0.0522078495962187  0.7150090285007975  0.1582332663653724
  0.1520639061852207  0.7701023017831053  0.1582709079344837
  0.0522067210802418  0.9362771673892287  0.1583502994926162
  0.2511869519117388  0.7144310883893427  0.1582565322598164
  0.3526545230568536  0.7669050759778802  0.1584000368079407
  0.3535586311511776  0.8796261496177873  0.1583891452894740
  0.2533950138563652  0.9358499701645463  0.1583506810517845
  0.4503689619799657  0.7063780214812578  0.1584455389348282
  0.5522077509417073  0.7615700157132715  0.1584248607354603
  0.5522070105465136  0.8759594567884503  0.1584263681042887
  0.4535278845596467  0.9350776481141502  0.1584212447918220
  0.6540445310465574  0.7063778234709251  0.1584403655560531
  0.7517597444451664  0.7669043450890062  0.1583993966030719
  0.7508555639835333  0.8796264513121578  0.1583914831464208
  0.6508872614172069  0.9350774674262027  0.1584224036886318
  0.8532283411895351  0.7144308905714921  0.1582598629546142
  0.9523496637610468  0.7701018056064450  0.1582737716099695
  0.8510189895778756  0.9358499245426984  0.1583551168922410
  0.1526247116501390  0.8815221665079334  0.1583355913658348
  0.9517898148325685  0.8815223242638570  0.1583382098958790
  0.4456739666429981  0.3866504251656165  0.1585029181617439
  0.4456511778752178  0.5971221628775467  0.1584133950703860
  0.6587403975718218  0.3866504129674567  0.1584947276625288
  0.6587633738697736  0.5971228186950812  0.1584036560688744
  0.5522058240985481  0.4918650414420585  0.1570829919806452
 
  0.00000000E+00  0.00000000E+00  0.00000000E+00
  0.00000000E+00  0.00000000E+00  0.00000000E+00
  0.00000000E+00  0.00000000E+00  0.00000000E+00
  0.00000000E+00  0.00000000E+00  0.00000000E+00
  0.00000000E+00  0.00000000E+00  0.00000000E+00
  0.00000000E+00  0.00000000E+00  0.00000000E+00
  0.00000000E+00  0.00000000E+00  0.00000000E+00
  0.00000000E+00  0.00000000E+00  0.00000000E+00
  0.00000000E+00  0.00000000E+00  0.00000000E+00
  0.00000000E+00  0.00000000E+00  0.00000000E+00
  0.00000000E+00  0.00000000E+00  0.00000000E+00
  0.00000000E+00  0.00000000E+00  0.00000000E+00
  0.00000000E+00  0.00000000E+00  0.00000000E+00
  0.00000000E+00  0.00000000E+00  0.00000000E+00
  0.00000000E+00  0.00000000E+00  0.00000000E+00
  0.00000000E+00  0.00000000E+00  0.00000000E+00
  0.00000000E+00  0.00000000E+00  0.00000000E+00
  0.00000000E+00  0.00000000E+00  0.00000000E+00
  0.00000000E+00  0.00000000E+00  0.00000000E+00
  0.00000000E+00  0.00000000E+00  0.00000000E+00
  0.00000000E+00  0.00000000E+00  0.00000000E+00
  0.00000000E+00  0.00000000E+00  0.00000000E+00
  0.00000000E+00  0.00000000E+00  0.00000000E+00
  0.00000000E+00  0.00000000E+00  0.00000000E+00
  0.00000000E+00  0.00000000E+00  0.00000000E+00
  0.00000000E+00  0.00000000E+00  0.00000000E+00
  0.00000000E+00  0.00000000E+00  0.00000000E+00
  0.00000000E+00  0.00000000E+00  0.00000000E+00
  0.00000000E+00  0.00000000E+00  0.00000000E+00
  0.00000000E+00  0.00000000E+00  0.00000000E+00
  0.00000000E+00  0.00000000E+00  0.00000000E+00
  0.00000000E+00  0.00000000E+00  0.00000000E+00
  0.00000000E+00  0.00000000E+00  0.00000000E+00
  0.00000000E+00  0.00000000E+00  0.00000000E+00
  0.00000000E+00  0.00000000E+00  0.00000000E+00
  0.00000000E+00  0.00000000E+00  0.00000000E+00
  0.00000000E+00  0.00000000E+00  0.00000000E+00
  0.00000000E+00  0.00000000E+00  0.00000000E+00
  0.00000000E+00  0.00000000E+00  0.00000000E+00
  0.00000000E+00  0.00000000E+00  0.00000000E+00
  0.00000000E+00  0.00000000E+00  0.00000000E+00
  0.00000000E+00  0.00000000E+00  0.00000000E+00
  0.00000000E+00  0.00000000E+00  0.00000000E+00
  0.00000000E+00  0.00000000E+00  0.00000000E+00
  0.00000000E+00  0.00000000E+00  0.00000000E+00
  0.00000000E+00  0.00000000E+00  0.00000000E+00
  0.00000000E+00  0.00000000E+00  0.00000000E+00
  0.00000000E+00  0.00000000E+00  0.00000000E+00
  0.00000000E+00  0.00000000E+00  0.00000000E+00
  0.00000000E+00  0.00000000E+00  0.00000000E+00
  0.00000000E+00  0.00000000E+00  0.00000000E+00
  0.00000000E+00  0.00000000E+00  0.00000000E+00
  0.00000000E+00  0.00000000E+00  0.00000000E+00
  0.00000000E+00  0.00000000E+00  0.00000000E+00
  0.00000000E+00  0.00000000E+00  0.00000000E+00
  0.00000000E+00  0.00000000E+00  0.00000000E+00
  0.00000000E+00  0.00000000E+00  0.00000000E+00
  0.00000000E+00  0.00000000E+00  0.00000000E+00
  0.00000000E+00  0.00000000E+00  0.00000000E+00
