C54N4Fe1                                
   1.00000000000000     
    12.4863915512393451    0.0000000000000000    0.0000000000000000
     0.0000000000000008   12.7495672503718414    0.0000000000000000
     0.0000000000000012    0.0000000000000012   20.0085552056534119
   C    N    Fe
    54     4     1
Direct
  0.0522071305088499  0.0475022091122191  0.1582952609566833
  0.1525656826268769  0.1022364944507167  0.1583045289064012
  0.1519844361855717  0.2135998196219376  0.1582694224717241
  0.0522072415019521  0.2686754842744537  0.1582576952603746
  0.2533774225869894  0.0478710226419438  0.1583607831801838
  0.3535000226818689  0.1040059061475053  0.1583316900454562
  0.3525248036545910  0.2168232270701416  0.1582041529239959
  0.2511974666951839  0.2692952259198269  0.1582396876956330
  0.4534467342539746  0.0486932470209385  0.1583845073859402
  0.5522070719987031  0.1078521986591250  0.1584024677406367
  0.5522069742652668  0.2221408545754105  0.1583745140365493
  0.4502770481987392  0.2772884635258466  0.1582399701472530
  0.6509675785405923  0.0486933501993131  0.1583854563277707
  0.7509141800502511  0.1040060176511505  0.1583336655643187
  0.7518893701379677  0.2168231609955965  0.1582055923071079
  0.6541370077981046  0.2772885984316537  0.1582398516595935
  0.8510367805753679  0.0478711576962375  0.1583633878313108
  0.9518487838202377  0.1022365147529039  0.1583063963687051
  0.9524298599065736  0.2135997239192461  0.1582712410760263
  0.8532166990234114  0.2692954094371260  0.1582418120810925
  0.0522072611965818  0.3803524064787966  0.1582889786074295
  0.1503602916979466  0.4363497897919933  0.1582957514336216
  0.1503572680864625  0.5474024976364109  0.1582835255459682
  0.0522072436992717  0.6033980330825838  0.1582684780068463
  0.2493748083364151  0.3806290335902315  0.1582202508863656
  0.3468189491959070  0.4356428936373069  0.1581139561814275
  0.3468217253361826  0.5481068044084728  0.1580983894422939
  0.2493748246293672  0.6031230322108665  0.1581944802618787
  0.7575952835685111  0.4356426664989117  0.1581136623066690
  0.7575924622697432  0.5481071652233473  0.1580979449074396
  0.8550396664000159  0.3806291564354479  0.1582220468126486
  0.9540541878049577  0.4363495976634201  0.1582976496720329
  0.9540571465244195  0.5474028237792312  0.1582853203899061
  0.8550395627411109  0.6031230313273582  0.1581959539080560
  0.0522072489341701  0.7150752570688973  0.1582319436660158
  0.1519865888092845  0.7701517739105815  0.1582449380646546
  0.0522071170827926  0.9362485352163897  0.1582902559671695
  0.2511977771401995  0.7144565050973242  0.1582068852745285
  0.3525241609341859  0.7669270732251279  0.1581717150407823
  0.3535013983028951  0.8797436795622311  0.1583140036848003
  0.2533783508926016  0.9358794360695929  0.1583534546805120
  0.4502788167807070  0.7064626041535200  0.1582041925740836
  0.5522069619270392  0.7616087116428334  0.1583398329127195
  0.5522070938246030  0.8758959267657833  0.1583824554684821
  0.4534452784905481  0.9350563818546088  0.1583748440119594
  0.6541352215346107  0.7064625942020526  0.1582037446734278
  0.7518899518560288  0.7669271988574654  0.1581726227853561
  0.7509127500453403  0.8797436986603233  0.1583156483143430
  0.6509689829117263  0.9350563592790185  0.1583756897273084
  0.8532163208710908  0.7144564721620738  0.1582084836817745
  0.9524276741565052  0.7701518874296603  0.1582464354366320
  0.8510358498572088  0.9358793684619091  0.1583558844931213
  0.1525640267484328  0.8815152480383379  0.1582925493967800
  0.9518503467367340  0.8815153104304936  0.1582942112244838
  0.4454345904428850  0.3865897200193505  0.1579876784096530
  0.4454353288954868  0.5971575661858068  0.1579609229531534
  0.6589795828506724  0.3865897816509458  0.1579863312396529
  0.6589786702775463  0.5971575545765031  0.1579593245668052
  0.5522069331987447  0.4918743376115260  0.1624674794224750
 
  0.00000000E+00  0.00000000E+00  0.00000000E+00
  0.00000000E+00  0.00000000E+00  0.00000000E+00
  0.00000000E+00  0.00000000E+00  0.00000000E+00
  0.00000000E+00  0.00000000E+00  0.00000000E+00
  0.00000000E+00  0.00000000E+00  0.00000000E+00
  0.00000000E+00  0.00000000E+00  0.00000000E+00
  0.00000000E+00  0.00000000E+00  0.00000000E+00
  0.00000000E+00  0.00000000E+00  0.00000000E+00
  0.00000000E+00  0.00000000E+00  0.00000000E+00
  0.00000000E+00  0.00000000E+00  0.00000000E+00
  0.00000000E+00  0.00000000E+00  0.00000000E+00
  0.00000000E+00  0.00000000E+00  0.00000000E+00
  0.00000000E+00  0.00000000E+00  0.00000000E+00
  0.00000000E+00  0.00000000E+00  0.00000000E+00
  0.00000000E+00  0.00000000E+00  0.00000000E+00
  0.00000000E+00  0.00000000E+00  0.00000000E+00
  0.00000000E+00  0.00000000E+00  0.00000000E+00
  0.00000000E+00  0.00000000E+00  0.00000000E+00
  0.00000000E+00  0.00000000E+00  0.00000000E+00
  0.00000000E+00  0.00000000E+00  0.00000000E+00
  0.00000000E+00  0.00000000E+00  0.00000000E+00
  0.00000000E+00  0.00000000E+00  0.00000000E+00
  0.00000000E+00  0.00000000E+00  0.00000000E+00
  0.00000000E+00  0.00000000E+00  0.00000000E+00
  0.00000000E+00  0.00000000E+00  0.00000000E+00
  0.00000000E+00  0.00000000E+00  0.00000000E+00
  0.00000000E+00  0.00000000E+00  0.00000000E+00
  0.00000000E+00  0.00000000E+00  0.00000000E+00
  0.00000000E+00  0.00000000E+00  0.00000000E+00
  0.00000000E+00  0.00000000E+00  0.00000000E+00
  0.00000000E+00  0.00000000E+00  0.00000000E+00
  0.00000000E+00  0.00000000E+00  0.00000000E+00
  0.00000000E+00  0.00000000E+00  0.00000000E+00
  0.00000000E+00  0.00000000E+00  0.00000000E+00
  0.00000000E+00  0.00000000E+00  0.00000000E+00
  0.00000000E+00  0.00000000E+00  0.00000000E+00
  0.00000000E+00  0.00000000E+00  0.00000000E+00
  0.00000000E+00  0.00000000E+00  0.00000000E+00
  0.00000000E+00  0.00000000E+00  0.00000000E+00
  0.00000000E+00  0.00000000E+00  0.00000000E+00
  0.00000000E+00  0.00000000E+00  0.00000000E+00
  0.00000000E+00  0.00000000E+00  0.00000000E+00
  0.00000000E+00  0.00000000E+00  0.00000000E+00
  0.00000000E+00  0.00000000E+00  0.00000000E+00
  0.00000000E+00  0.00000000E+00  0.00000000E+00
  0.00000000E+00  0.00000000E+00  0.00000000E+00
  0.00000000E+00  0.00000000E+00  0.00000000E+00
  0.00000000E+00  0.00000000E+00  0.00000000E+00
  0.00000000E+00  0.00000000E+00  0.00000000E+00
  0.00000000E+00  0.00000000E+00  0.00000000E+00
  0.00000000E+00  0.00000000E+00  0.00000000E+00
  0.00000000E+00  0.00000000E+00  0.00000000E+00
  0.00000000E+00  0.00000000E+00  0.00000000E+00
  0.00000000E+00  0.00000000E+00  0.00000000E+00
  0.00000000E+00  0.00000000E+00  0.00000000E+00
  0.00000000E+00  0.00000000E+00  0.00000000E+00
  0.00000000E+00  0.00000000E+00  0.00000000E+00
  0.00000000E+00  0.00000000E+00  0.00000000E+00
  0.00000000E+00  0.00000000E+00  0.00000000E+00
