C54N4Fe1                                
   1.00000000000000     
    12.4863915512393451    0.0000000000000000    0.0000000000000000
     0.0000000000000008   12.7495672503718414    0.0000000000000000
     0.0000000000000012    0.0000000000000012   20.0085552056534119
   C    N    Fe
    54     4     1
Direct
  0.0522068119248673  0.0474851516785734  0.1583426973723773
  0.1526275821311417  0.1022516137534159  0.1583302231999740
  0.1520812613572433  0.2136553715173512  0.1582830870772965
  0.0522072852982280  0.2687513738012025  0.1582331088232876
  0.2534050954621989  0.0479087132663476  0.1583510985043681
  0.3535588130636094  0.1041072830962891  0.1583866909154316
  0.3526556705361815  0.2168393588724238  0.1584172036421956
  0.2511798052342199  0.2693123531509746  0.1583167958438720
  0.4535357256656445  0.0486681584804003  0.1584182960759346
  0.5522070024744661  0.1077806433127408  0.1584112083058511
  0.5522074584987684  0.2221635626066852  0.1584314704089898
  0.4503671013576191  0.2773658872390263  0.1584783614803410
  0.6508790152920871  0.0486688961190416  0.1584197596757790
  0.7508551607247003  0.1041075738867620  0.1583896898175408
  0.7517579438238567  0.2168408189652635  0.1584176304115377
  0.6540459400562538  0.2773664583401402  0.1584745533825876
  0.8510086656704211  0.0479095340223373  0.1583558115337650
  0.9517863080233059  0.1022517287777864  0.1583329832187870
  0.9523320464772803  0.2136561493506078  0.1582860566814592
  0.8532347184409105  0.2693128921933887  0.1583205750471659
  0.0522073022911094  0.3802592212397128  0.1581266273863572
  0.1503512080884422  0.4363406421906801  0.1581127504490132
  0.1503843592288431  0.5474071947179894  0.1580925923053003
  0.0522072282277627  0.6034925042224241  0.1581249452532800
  0.2494125230429585  0.3807264434345285  0.1582623669218622
  0.3467095849488113  0.4358457988448947  0.1584294675618225
  0.3467136143287127  0.5479069834638759  0.1583634235326896
  0.2494109702761499  0.6030215092237614  0.1581816705680509
  0.7577040709782441  0.4358481955260913  0.1584277623605268
  0.7577002279345474  0.5479054304461143  0.1583610234878520
  0.8550022992501365  0.3807255965116996  0.1582686003667437
  0.9540637853088426  0.4363426731234984  0.1581208518376522
  0.9540309353293679  0.5474056652528254  0.1581008778815152
  0.8550041883560870  0.6030231708816352  0.1581877800561667
  0.0522078244906874  0.7150123140760912  0.1582399606938395
  0.1520627105167464  0.7701030015140302  0.1582769871778102
  0.0522067221355405  0.9362754106934046  0.1583496488944822
  0.2511873727948569  0.7144305476698954  0.1582561673276060
  0.3526544501846970  0.7669012679683883  0.1583830349237275
  0.3535582805281721  0.8796257318313619  0.1583860676747521
  0.2533996859949952  0.9358492529201562  0.1583509174612476
  0.4503664073528226  0.7063818110426332  0.1584311888903713
  0.5522077655628163  0.7615624607345431  0.1584271382357275
  0.5522069648636219  0.8759554053637646  0.1584287816298942
  0.4535300477903272  0.9350730827848269  0.1584261929352908
  0.6540471206739501  0.7063815491480168  0.1584260143986599
  0.7517598717055536  0.7669004035647303  0.1583823848326645
  0.7508558455965992  0.8796260387324752  0.1583884166209787
  0.6508850770479007  0.9350729150738206  0.1584273495210644
  0.8532278461859899  0.7144302787233020  0.1582594786430095
  0.9523508151886828  0.7701025567870505  0.1582798173277923
  0.8510143357604725  0.9358492804010743  0.1583553872295538
  0.1526226136022942  0.8815206328606124  0.1583361107931522
  0.9517919310545805  0.8815207279754976  0.1583386891093047
  0.4456610290213767  0.3866580680968919  0.1587102736687829
  0.4456412763121831  0.5971162908325989  0.1586209258580536
  0.6587532435575409  0.3866581343079163  0.1587022802585932
  0.6587733566708045  0.5971168832464134  0.1586111980003351
  0.5522056963037733  0.4918614021400431  0.1565775465059467
 
  0.00000000E+00  0.00000000E+00  0.00000000E+00
  0.00000000E+00  0.00000000E+00  0.00000000E+00
  0.00000000E+00  0.00000000E+00  0.00000000E+00
  0.00000000E+00  0.00000000E+00  0.00000000E+00
  0.00000000E+00  0.00000000E+00  0.00000000E+00
  0.00000000E+00  0.00000000E+00  0.00000000E+00
  0.00000000E+00  0.00000000E+00  0.00000000E+00
  0.00000000E+00  0.00000000E+00  0.00000000E+00
  0.00000000E+00  0.00000000E+00  0.00000000E+00
  0.00000000E+00  0.00000000E+00  0.00000000E+00
  0.00000000E+00  0.00000000E+00  0.00000000E+00
  0.00000000E+00  0.00000000E+00  0.00000000E+00
  0.00000000E+00  0.00000000E+00  0.00000000E+00
  0.00000000E+00  0.00000000E+00  0.00000000E+00
  0.00000000E+00  0.00000000E+00  0.00000000E+00
  0.00000000E+00  0.00000000E+00  0.00000000E+00
  0.00000000E+00  0.00000000E+00  0.00000000E+00
  0.00000000E+00  0.00000000E+00  0.00000000E+00
  0.00000000E+00  0.00000000E+00  0.00000000E+00
  0.00000000E+00  0.00000000E+00  0.00000000E+00
  0.00000000E+00  0.00000000E+00  0.00000000E+00
  0.00000000E+00  0.00000000E+00  0.00000000E+00
  0.00000000E+00  0.00000000E+00  0.00000000E+00
  0.00000000E+00  0.00000000E+00  0.00000000E+00
  0.00000000E+00  0.00000000E+00  0.00000000E+00
  0.00000000E+00  0.00000000E+00  0.00000000E+00
  0.00000000E+00  0.00000000E+00  0.00000000E+00
  0.00000000E+00  0.00000000E+00  0.00000000E+00
  0.00000000E+00  0.00000000E+00  0.00000000E+00
  0.00000000E+00  0.00000000E+00  0.00000000E+00
  0.00000000E+00  0.00000000E+00  0.00000000E+00
  0.00000000E+00  0.00000000E+00  0.00000000E+00
  0.00000000E+00  0.00000000E+00  0.00000000E+00
  0.00000000E+00  0.00000000E+00  0.00000000E+00
  0.00000000E+00  0.00000000E+00  0.00000000E+00
  0.00000000E+00  0.00000000E+00  0.00000000E+00
  0.00000000E+00  0.00000000E+00  0.00000000E+00
  0.00000000E+00  0.00000000E+00  0.00000000E+00
  0.00000000E+00  0.00000000E+00  0.00000000E+00
  0.00000000E+00  0.00000000E+00  0.00000000E+00
  0.00000000E+00  0.00000000E+00  0.00000000E+00
  0.00000000E+00  0.00000000E+00  0.00000000E+00
  0.00000000E+00  0.00000000E+00  0.00000000E+00
  0.00000000E+00  0.00000000E+00  0.00000000E+00
  0.00000000E+00  0.00000000E+00  0.00000000E+00
  0.00000000E+00  0.00000000E+00  0.00000000E+00
  0.00000000E+00  0.00000000E+00  0.00000000E+00
  0.00000000E+00  0.00000000E+00  0.00000000E+00
  0.00000000E+00  0.00000000E+00  0.00000000E+00
  0.00000000E+00  0.00000000E+00  0.00000000E+00
  0.00000000E+00  0.00000000E+00  0.00000000E+00
  0.00000000E+00  0.00000000E+00  0.00000000E+00
  0.00000000E+00  0.00000000E+00  0.00000000E+00
  0.00000000E+00  0.00000000E+00  0.00000000E+00
  0.00000000E+00  0.00000000E+00  0.00000000E+00
  0.00000000E+00  0.00000000E+00  0.00000000E+00
  0.00000000E+00  0.00000000E+00  0.00000000E+00
  0.00000000E+00  0.00000000E+00  0.00000000E+00
  0.00000000E+00  0.00000000E+00  0.00000000E+00
