C54N4Fe1                                
   1.00000000000000     
    12.4863915512393451    0.0000000000000000    0.0000000000000000
     0.0000000000000008   12.7495672503718414    0.0000000000000000
     0.0000000000000012    0.0000000000000012   20.0085552056534119
   C    N    Fe
    54     4     1
Direct
  0.0522072310436873  0.0474827453794937  0.1583232231702042
  0.1526326012565453  0.1022536002011511  0.1583289963397010
  0.1520796176685091  0.2136588087799830  0.1582871776941815
  0.0522074343373410  0.2687396898548465  0.1582347823950204
  0.2534239159246454  0.0479064365099879  0.1583897005991669
  0.3535736099041522  0.1040953138667590  0.1584151164229873
  0.3526416643773815  0.2168462506457130  0.1583727209356268
  0.2511898235488824  0.2693303687827929  0.1583287339324864
  0.4535410601667715  0.0486804217704282  0.1584282452937130
  0.5522072047812040  0.1077769003561238  0.1584311079696439
  0.5522071003682975  0.2221642568926337  0.1583812708517644
  0.4503796291179883  0.2773742857504349  0.1583291693534132
  0.6508734882450153  0.0486805326107259  0.1584291964191438
  0.7508407168443757  0.1040951878450258  0.1584171815489966
  0.7517726597527472  0.2168462874793456  0.1583741067012858
  0.6540340883417497  0.2773742698601140  0.1583287363156979
  0.8509904205044007  0.0479067594342082  0.1583926497488897
  0.9517819622752547  0.1022533640827962  0.1583311819710131
  0.9523344886213879  0.2136588033196291  0.1582893785328224
  0.8532244638095406  0.2693305187116623  0.1583312497219407
  0.0522070327688682  0.3802544117620463  0.1582252761418186
  0.1503534913207082  0.4363599258824826  0.1582542708901235
  0.1503569361239893  0.5473912608027076  0.1582406362059964
  0.0522069360230467  0.6034975143115068  0.1582043032487665
  0.2494053463275721  0.3807127199127068  0.1583142367906744
  0.3467252855121278  0.4358498941418121  0.1582525624886383
  0.3467311469123515  0.5478990651807938  0.1582330547179368
  0.2494000341093331  0.6030386734886378  0.1582835369124192
  0.7576884234220800  0.4358503040195201  0.1582520708867620
  0.7576824968765591  0.5478986643402651  0.1582323000326409
  0.8550088272283322  0.3807123360094412  0.1583166102614395
  0.9540608945574607  0.4363603716684362  0.1582570354928229
  0.9540576052948525  0.5473908935862188  0.1582432953303562
  0.8550140992871011  0.6030391981103920  0.1582855219778123
  0.0522075672980848  0.7150109474172066  0.1582108675989376
  0.1520775262343808  0.7700910269776596  0.1582645893502019
  0.0522071323054775  0.9362677132899401  0.1583206988418187
  0.2511929629021702  0.7144198267563527  0.1582928302678233
  0.3526393733167142  0.7669046864458544  0.1583387701007557
  0.3535755187155039  0.8796555152070220  0.1583993948804681
  0.2534214917147586  0.9358438514853402  0.1583840575646311
  0.4503818907345663  0.7063747676667554  0.1582899149759006
  0.5522071708657402  0.7615883850480668  0.1583459417142794
  0.5522071882970285  0.8759739181900738  0.1584135767422508
  0.4535406735609718  0.9350703034182263  0.1584203301992989
  0.6540317780118173  0.7063747648547982  0.1582890096266004
  0.7517749792652315  0.7669047224318299  0.1583395096323530
  0.7508387422531200  0.8796556819903315  0.1584010679569922
  0.6508739861238551  0.9350702541879621  0.1584211435202324
  0.8532213742749678  0.7144196722518474  0.1582947662038230
  0.9523365053144306  0.7700910802328088  0.1582664893807285
  0.8509928101610135  0.9358435877211814  0.1583868241372982
  0.1526342153490712  0.8814974983061575  0.1583204419332456
  0.9517804669086001  0.8814977741508899  0.1583224425078439
  0.4456683499203071  0.3866712012972038  0.1580133065707392
  0.4456684037470952  0.5970788171498623  0.1579802318762183
  0.6587455686685548  0.3866711953195635  0.1580113732842603
  0.6587454689622403  0.5970788373176733  0.1579778944968398
  0.5522071184400423  0.4918739355345995  0.1594858893405668
 
  0.00000000E+00  0.00000000E+00  0.00000000E+00
  0.00000000E+00  0.00000000E+00  0.00000000E+00
  0.00000000E+00  0.00000000E+00  0.00000000E+00
  0.00000000E+00  0.00000000E+00  0.00000000E+00
  0.00000000E+00  0.00000000E+00  0.00000000E+00
  0.00000000E+00  0.00000000E+00  0.00000000E+00
  0.00000000E+00  0.00000000E+00  0.00000000E+00
  0.00000000E+00  0.00000000E+00  0.00000000E+00
  0.00000000E+00  0.00000000E+00  0.00000000E+00
  0.00000000E+00  0.00000000E+00  0.00000000E+00
  0.00000000E+00  0.00000000E+00  0.00000000E+00
  0.00000000E+00  0.00000000E+00  0.00000000E+00
  0.00000000E+00  0.00000000E+00  0.00000000E+00
  0.00000000E+00  0.00000000E+00  0.00000000E+00
  0.00000000E+00  0.00000000E+00  0.00000000E+00
  0.00000000E+00  0.00000000E+00  0.00000000E+00
  0.00000000E+00  0.00000000E+00  0.00000000E+00
  0.00000000E+00  0.00000000E+00  0.00000000E+00
  0.00000000E+00  0.00000000E+00  0.00000000E+00
  0.00000000E+00  0.00000000E+00  0.00000000E+00
  0.00000000E+00  0.00000000E+00  0.00000000E+00
  0.00000000E+00  0.00000000E+00  0.00000000E+00
  0.00000000E+00  0.00000000E+00  0.00000000E+00
  0.00000000E+00  0.00000000E+00  0.00000000E+00
  0.00000000E+00  0.00000000E+00  0.00000000E+00
  0.00000000E+00  0.00000000E+00  0.00000000E+00
  0.00000000E+00  0.00000000E+00  0.00000000E+00
  0.00000000E+00  0.00000000E+00  0.00000000E+00
  0.00000000E+00  0.00000000E+00  0.00000000E+00
  0.00000000E+00  0.00000000E+00  0.00000000E+00
  0.00000000E+00  0.00000000E+00  0.00000000E+00
  0.00000000E+00  0.00000000E+00  0.00000000E+00
  0.00000000E+00  0.00000000E+00  0.00000000E+00
  0.00000000E+00  0.00000000E+00  0.00000000E+00
  0.00000000E+00  0.00000000E+00  0.00000000E+00
  0.00000000E+00  0.00000000E+00  0.00000000E+00
  0.00000000E+00  0.00000000E+00  0.00000000E+00
  0.00000000E+00  0.00000000E+00  0.00000000E+00
  0.00000000E+00  0.00000000E+00  0.00000000E+00
  0.00000000E+00  0.00000000E+00  0.00000000E+00
  0.00000000E+00  0.00000000E+00  0.00000000E+00
  0.00000000E+00  0.00000000E+00  0.00000000E+00
  0.00000000E+00  0.00000000E+00  0.00000000E+00
  0.00000000E+00  0.00000000E+00  0.00000000E+00
  0.00000000E+00  0.00000000E+00  0.00000000E+00
  0.00000000E+00  0.00000000E+00  0.00000000E+00
  0.00000000E+00  0.00000000E+00  0.00000000E+00
  0.00000000E+00  0.00000000E+00  0.00000000E+00
  0.00000000E+00  0.00000000E+00  0.00000000E+00
  0.00000000E+00  0.00000000E+00  0.00000000E+00
  0.00000000E+00  0.00000000E+00  0.00000000E+00
  0.00000000E+00  0.00000000E+00  0.00000000E+00
  0.00000000E+00  0.00000000E+00  0.00000000E+00
  0.00000000E+00  0.00000000E+00  0.00000000E+00
  0.00000000E+00  0.00000000E+00  0.00000000E+00
  0.00000000E+00  0.00000000E+00  0.00000000E+00
  0.00000000E+00  0.00000000E+00  0.00000000E+00
  0.00000000E+00  0.00000000E+00  0.00000000E+00
  0.00000000E+00  0.00000000E+00  0.00000000E+00
