C54N4Fe1                                
   1.00000000000000     
    12.4863915512393451    0.0000000000000000    0.0000000000000000
     0.0000000000000008   12.7495672503718414    0.0000000000000000
     0.0000000000000012    0.0000000000000012   20.0085552056534119
   C    N    Fe
    54     4     1
Direct
  0.0522077004573438  0.0474741361359014  0.1583525777223176
  0.1525435515195877  0.1022366127825451  0.1583403070429897
  0.1520206530833893  0.2136059877458142  0.1582956453879991
  0.0522058137080611  0.2686716040871211  0.1582220686186813
  0.2533897138418412  0.0478783680004237  0.1583554626344825
  0.3534841985574119  0.1040060718377426  0.1584352212316517
  0.3525129251337552  0.2167960604646517  0.1585316701946517
  0.2511595811640538  0.2692887806964389  0.1583662365110070
  0.4534459680048336  0.0486894210939567  0.1584347862295864
  0.5522074115542257  0.1078627493306468  0.1584329218463732
  0.5522073011038737  0.2221250463052947  0.1584629377788966
  0.4502810138209347  0.2772806623815534  0.1585649675614428
  0.6509680122957731  0.0486891664581849  0.1584357865303477
  0.7509305799975432  0.1040065349740929  0.1584374896012548
  0.7519002826714382  0.2167968166326012  0.1585328257971087
  0.6541327052165026  0.2772799778381235  0.1585635217942245
  0.8510248766474262  0.0478765191015197  0.1583589696499476
  0.9518697701046843  0.1022376166385693  0.1583428882422540
  0.9523950826769009  0.2136060491997737  0.1582983705633174
  0.8532552337943712  0.2692892263112002  0.1583692386555375
  0.0522089046322985  0.3803596000528719  0.1580821512277478
  0.1503446791085427  0.4363555488692272  0.1580723127948434
  0.1503588764137187  0.5473912174761960  0.1580568738730884
  0.0522073972923988  0.6034146109171528  0.1580615673156537
  0.2493754084067630  0.3806191672628091  0.1582973760130557
  0.3468131856833483  0.4356387885909737  0.1585176352585007
  0.3467898291862240  0.5481217583027135  0.1584895560725509
  0.2493784032286361  0.6031155969080603  0.1582579488668853
  0.7575999056753651  0.4356427674119615  0.1585160998808173
  0.7576219768358563  0.5481173961830317  0.1584877990744585
  0.8550389124051311  0.3806173351735840  0.1583005488150868
  0.9540683005270982  0.4363585369396158  0.1580764954577678
  0.9540560108430994  0.5473887689412719  0.1580610065332057
  0.8550367356248897  0.6031183615262062  0.1582608124822401
  0.0522064560613021  0.7150788853581392  0.1582019601143036
  0.1519848241952562  0.7701491961236385  0.1582763292715167
  0.0522080366761074  0.9362812590947007  0.1583535123171381
  0.2511859829964739  0.7144621352276223  0.1583249383303825
  0.3525142350662926  0.7669502423654014  0.1584946329925689
  0.3534972680822528  0.8797508352751391  0.1584229608894019
  0.2533729011998241  0.9358728822857747  0.1583522397654986
  0.4502679442284896  0.7064715306368472  0.1585176426284190
  0.5522076583629315  0.7616225350647213  0.1584262871091881
  0.5522073292520462  0.8759038629379898  0.1584207002435930
  0.4534415588627770  0.9350491220104723  0.1584303154163044
  0.6541456100145728  0.7064721227357954  0.1585155564537956
  0.7518991177218121  0.7669496682179305  0.1584949370744310
  0.7509178500510929  0.8797504389957718  0.1584247436378090
  0.6509725901209277  0.9350495631546698  0.1584311349009436
  0.8532290285878285  0.7144617749780960  0.1583272977748625
  0.9524305943966456  0.7701487683013499  0.1582787504879632
  0.8510412264576900  0.9358748224500633  0.1583555543244913
  0.1525610278331971  0.8815104875411568  0.1583366102508123
  0.9518523046599595  0.8815097731863998  0.1583390143528393
  0.4454269121466665  0.3865934495292521  0.1588058129795280
  0.4454401824599646  0.5971527298361643  0.1587606111892970
  0.6589874752079962  0.3865935906501896  0.1588020122856718
  0.6589744065159229  0.5971530249063517  0.1587562952282446
  0.5522065776246552  0.4918704365645601  0.1544080727210368
 
  0.00000000E+00  0.00000000E+00  0.00000000E+00
  0.00000000E+00  0.00000000E+00  0.00000000E+00
  0.00000000E+00  0.00000000E+00  0.00000000E+00
  0.00000000E+00  0.00000000E+00  0.00000000E+00
  0.00000000E+00  0.00000000E+00  0.00000000E+00
  0.00000000E+00  0.00000000E+00  0.00000000E+00
  0.00000000E+00  0.00000000E+00  0.00000000E+00
  0.00000000E+00  0.00000000E+00  0.00000000E+00
  0.00000000E+00  0.00000000E+00  0.00000000E+00
  0.00000000E+00  0.00000000E+00  0.00000000E+00
  0.00000000E+00  0.00000000E+00  0.00000000E+00
  0.00000000E+00  0.00000000E+00  0.00000000E+00
  0.00000000E+00  0.00000000E+00  0.00000000E+00
  0.00000000E+00  0.00000000E+00  0.00000000E+00
  0.00000000E+00  0.00000000E+00  0.00000000E+00
  0.00000000E+00  0.00000000E+00  0.00000000E+00
  0.00000000E+00  0.00000000E+00  0.00000000E+00
  0.00000000E+00  0.00000000E+00  0.00000000E+00
  0.00000000E+00  0.00000000E+00  0.00000000E+00
  0.00000000E+00  0.00000000E+00  0.00000000E+00
  0.00000000E+00  0.00000000E+00  0.00000000E+00
  0.00000000E+00  0.00000000E+00  0.00000000E+00
  0.00000000E+00  0.00000000E+00  0.00000000E+00
  0.00000000E+00  0.00000000E+00  0.00000000E+00
  0.00000000E+00  0.00000000E+00  0.00000000E+00
  0.00000000E+00  0.00000000E+00  0.00000000E+00
  0.00000000E+00  0.00000000E+00  0.00000000E+00
  0.00000000E+00  0.00000000E+00  0.00000000E+00
  0.00000000E+00  0.00000000E+00  0.00000000E+00
  0.00000000E+00  0.00000000E+00  0.00000000E+00
  0.00000000E+00  0.00000000E+00  0.00000000E+00
  0.00000000E+00  0.00000000E+00  0.00000000E+00
  0.00000000E+00  0.00000000E+00  0.00000000E+00
  0.00000000E+00  0.00000000E+00  0.00000000E+00
  0.00000000E+00  0.00000000E+00  0.00000000E+00
  0.00000000E+00  0.00000000E+00  0.00000000E+00
  0.00000000E+00  0.00000000E+00  0.00000000E+00
  0.00000000E+00  0.00000000E+00  0.00000000E+00
  0.00000000E+00  0.00000000E+00  0.00000000E+00
  0.00000000E+00  0.00000000E+00  0.00000000E+00
  0.00000000E+00  0.00000000E+00  0.00000000E+00
  0.00000000E+00  0.00000000E+00  0.00000000E+00
  0.00000000E+00  0.00000000E+00  0.00000000E+00
  0.00000000E+00  0.00000000E+00  0.00000000E+00
  0.00000000E+00  0.00000000E+00  0.00000000E+00
  0.00000000E+00  0.00000000E+00  0.00000000E+00
  0.00000000E+00  0.00000000E+00  0.00000000E+00
  0.00000000E+00  0.00000000E+00  0.00000000E+00
  0.00000000E+00  0.00000000E+00  0.00000000E+00
  0.00000000E+00  0.00000000E+00  0.00000000E+00
  0.00000000E+00  0.00000000E+00  0.00000000E+00
  0.00000000E+00  0.00000000E+00  0.00000000E+00
  0.00000000E+00  0.00000000E+00  0.00000000E+00
  0.00000000E+00  0.00000000E+00  0.00000000E+00
  0.00000000E+00  0.00000000E+00  0.00000000E+00
  0.00000000E+00  0.00000000E+00  0.00000000E+00
  0.00000000E+00  0.00000000E+00  0.00000000E+00
  0.00000000E+00  0.00000000E+00  0.00000000E+00
  0.00000000E+00  0.00000000E+00  0.00000000E+00
