C54N4Fe1                                
   1.00000000000000     
    12.4863915512393451    0.0000000000000000    0.0000000000000000
     0.0000000000000008   12.7495672503718414    0.0000000000000000
     0.0000000000000012    0.0000000000000012   20.0085552056534119
   C    N    Fe
    54     4     1
Direct
  0.0522071857519584  0.0475116435971648  0.1582914298953039
  0.1525228575245073  0.1022214540818223  0.1583018035923173
  0.1519409615250973  0.2135639695518194  0.1582682289617413
  0.0522067826728902  0.2686472869481745  0.1582714863355708
  0.2533569162035156  0.0478510111294370  0.1583561147156232
  0.3534574941239405  0.1039547062852490  0.1583064193189097
  0.3524565578691445  0.2167962657941330  0.1581396678026343
  0.2511926479839391  0.2692695612378180  0.1582072553201598
  0.4533993691594378  0.0486934541484848  0.1583784284682894
  0.5522073170538536  0.1078830075155869  0.1583990713189557
  0.5522068472830356  0.2221014954912186  0.1583695833759011
  0.4502125350331330  0.2772303434736161  0.1582008493044265
  0.6510148992042200  0.0486932414504950  0.1583793342215886
  0.7509565684094217  0.1039550868172635  0.1583083102461550
  0.7519573291944274  0.2167958814625247  0.1581411479136405
  0.6542015171100699  0.2772297186054644  0.1582009213290265
  0.8510571134389411  0.0478504689006111  0.1583586049787177
  0.9518911426682555  0.1022216808653681  0.1583035993702724
  0.9524737812769075  0.2135637224367786  0.1582699720671688
  0.8532212209650530  0.2692695106915333  0.1582093751723208
  0.0522073783205939  0.3803851250777883  0.1583136377129625
  0.1503553370325468  0.4363420122619370  0.1583070894519850
  0.1503554429992093  0.5474096361901384  0.1582950748399563
  0.0522073251965497  0.6033673214975220  0.1582931671922514
  0.2493445930444421  0.3805775770457858  0.1581764305902475
  0.3468615050899576  0.4355461457693798  0.1580460592426466
  0.3468592504900362  0.5482099167645191  0.1580314696395426
  0.2493488120312839  0.6031723415272328  0.1581516440495456
  0.7575531807420519  0.4355458140881670  0.1580460455154630
  0.7575553337920512  0.5482101752568116  0.1580311175584746
  0.8550702865113713  0.3805778071706291  0.1581783461558747
  0.9540587148382278  0.4363419576937461  0.1583089938550234
  0.9540584663374302  0.5474099158346092  0.1582969493483021
  0.8550660704851547  0.6031720349392038  0.1581532538967770
  0.0522067013531790  0.7151069271786229  0.1582456296615978
  0.1519394790590526  0.7701841793805289  0.1582438336279785
  0.0522072662291969  0.9362348851475681  0.1582863252911583
  0.2511911699573038  0.7144838975793881  0.1581754027988749
  0.3524586524356292  0.7669501295250475  0.1581080100203132
  0.3534587628489255  0.8797955546292640  0.1582888276445557
  0.2533549529009154  0.9358963428359313  0.1583488028573045
  0.4502148457167413  0.7065214956018686  0.1581660867619042
  0.5522068286664265  0.7616454381397747  0.1583353974258236
  0.5522073887235738  0.8758669124381318  0.1583790268170316
  0.4533996775601590  0.9350563964692230  0.1583687741753350
  0.6541991809048043  0.7065221517709708  0.1581656252647360
  0.7519552637717343  0.7669504959147785  0.1581089021514919
  0.7509553672741822  0.8797952640567321  0.1582903974241598
  0.6510144394748766  0.9350566751367340  0.1583695780124746
  0.8532226783721197  0.7144841140585783  0.1581770123026047
  0.9524753039790368  0.7701842976684373  0.1582453045708757
  0.8510591841186975  0.9358967601998930  0.1583511215332963
  0.1525235428239524  0.8815256359377432  0.1582897461540167
  0.9518902567261570  0.8815254726729383  0.1582913523753178
  0.4453291821270198  0.3865514844361914  0.1579631310337742
  0.4453263583193087  0.5972031386567314  0.1579377700078299
  0.6590852749467220  0.3865510941286056  0.1579619923239887
  0.6590879820594007  0.5972033903975266  0.1579360247734938
  0.5522075182882356  0.4918765744367866  0.1636050422323018
 
  0.00000000E+00  0.00000000E+00  0.00000000E+00
  0.00000000E+00  0.00000000E+00  0.00000000E+00
  0.00000000E+00  0.00000000E+00  0.00000000E+00
  0.00000000E+00  0.00000000E+00  0.00000000E+00
  0.00000000E+00  0.00000000E+00  0.00000000E+00
  0.00000000E+00  0.00000000E+00  0.00000000E+00
  0.00000000E+00  0.00000000E+00  0.00000000E+00
  0.00000000E+00  0.00000000E+00  0.00000000E+00
  0.00000000E+00  0.00000000E+00  0.00000000E+00
  0.00000000E+00  0.00000000E+00  0.00000000E+00
  0.00000000E+00  0.00000000E+00  0.00000000E+00
  0.00000000E+00  0.00000000E+00  0.00000000E+00
  0.00000000E+00  0.00000000E+00  0.00000000E+00
  0.00000000E+00  0.00000000E+00  0.00000000E+00
  0.00000000E+00  0.00000000E+00  0.00000000E+00
  0.00000000E+00  0.00000000E+00  0.00000000E+00
  0.00000000E+00  0.00000000E+00  0.00000000E+00
  0.00000000E+00  0.00000000E+00  0.00000000E+00
  0.00000000E+00  0.00000000E+00  0.00000000E+00
  0.00000000E+00  0.00000000E+00  0.00000000E+00
  0.00000000E+00  0.00000000E+00  0.00000000E+00
  0.00000000E+00  0.00000000E+00  0.00000000E+00
  0.00000000E+00  0.00000000E+00  0.00000000E+00
  0.00000000E+00  0.00000000E+00  0.00000000E+00
  0.00000000E+00  0.00000000E+00  0.00000000E+00
  0.00000000E+00  0.00000000E+00  0.00000000E+00
  0.00000000E+00  0.00000000E+00  0.00000000E+00
  0.00000000E+00  0.00000000E+00  0.00000000E+00
  0.00000000E+00  0.00000000E+00  0.00000000E+00
  0.00000000E+00  0.00000000E+00  0.00000000E+00
  0.00000000E+00  0.00000000E+00  0.00000000E+00
  0.00000000E+00  0.00000000E+00  0.00000000E+00
  0.00000000E+00  0.00000000E+00  0.00000000E+00
  0.00000000E+00  0.00000000E+00  0.00000000E+00
  0.00000000E+00  0.00000000E+00  0.00000000E+00
  0.00000000E+00  0.00000000E+00  0.00000000E+00
  0.00000000E+00  0.00000000E+00  0.00000000E+00
  0.00000000E+00  0.00000000E+00  0.00000000E+00
  0.00000000E+00  0.00000000E+00  0.00000000E+00
  0.00000000E+00  0.00000000E+00  0.00000000E+00
  0.00000000E+00  0.00000000E+00  0.00000000E+00
  0.00000000E+00  0.00000000E+00  0.00000000E+00
  0.00000000E+00  0.00000000E+00  0.00000000E+00
  0.00000000E+00  0.00000000E+00  0.00000000E+00
  0.00000000E+00  0.00000000E+00  0.00000000E+00
  0.00000000E+00  0.00000000E+00  0.00000000E+00
  0.00000000E+00  0.00000000E+00  0.00000000E+00
  0.00000000E+00  0.00000000E+00  0.00000000E+00
  0.00000000E+00  0.00000000E+00  0.00000000E+00
  0.00000000E+00  0.00000000E+00  0.00000000E+00
  0.00000000E+00  0.00000000E+00  0.00000000E+00
  0.00000000E+00  0.00000000E+00  0.00000000E+00
  0.00000000E+00  0.00000000E+00  0.00000000E+00
  0.00000000E+00  0.00000000E+00  0.00000000E+00
  0.00000000E+00  0.00000000E+00  0.00000000E+00
  0.00000000E+00  0.00000000E+00  0.00000000E+00
  0.00000000E+00  0.00000000E+00  0.00000000E+00
  0.00000000E+00  0.00000000E+00  0.00000000E+00
  0.00000000E+00  0.00000000E+00  0.00000000E+00
