 C  N Ni  O  H 
 1.0000000000000000
    12.4553732999999998    0.0000000000000000    0.0000000000000000
     0.0000000000000000   12.7322628600000005    0.0000000000000000
     0.0000000000000000    0.0000000000000000   30.0000000000000000
 C   N   Ni  O   H  
  54   4   1  46  92
Cartesian
  0.5746324125636774  1.8664904324301339  2.2733971474965897
  1.8293735928640451  2.5700897369905134  2.2426597771372139
  1.8223493923543841  3.9862197138503004  2.1984257585168669
  0.5759733605312827  4.6887716391272658  2.1785377368093362
  3.0860532797519369  1.8751297599243548  2.1916483393754400
  4.3331437283564567  2.5960247181204066  2.1101696935846230
  4.3190233727513521  4.0251890490012796  2.0805020626602420
  3.0577534649438620  4.6968216540122212  2.1206064460466099
  5.5778823644664213  1.8802261500513466  2.0447836910089050
  6.8029501378969348  2.6322622158781126  2.0058728147635199
  6.8024120078123014  4.0878114609507836  1.9800678625387649
  5.5430779961224932  4.8028139026436003  1.9970964135031710
  8.0282043734100963  1.8797939765677438  2.0226920486170052
  9.2733981736622990  2.5941205398321294  2.0726640625563810
  9.2859993832000765  4.0222333558648096  2.0300007561254940
  8.0612845479492883  4.8007483442600369  1.9592342814274051
 10.5199019894817720  1.8741610701839171  2.1630217673095502
 11.7755785109838484  2.5683075250727483  2.2251247373742333
 11.7854211304067924  3.9858579795015951  2.1731107909247043
 10.5502575928154538  4.6955458000537114  2.0692112645191831
  0.5763840891618626  6.1021077087719489  2.1190496692990290
  1.8030649433088284  6.8200672526827884  2.0934504945556229
  1.8034591562320696  8.2348439129870652  2.0896521663593579
  0.5763388760505355  8.9535427760025250  2.1134661069774903
  3.0365526682194695  6.1126566845024124  2.0647899349932000
  4.2525632147776271  6.8209800495853514  1.9820692917587881
  4.2540554820033210  8.2358301135026988  1.9620428985403229
  3.0367030318313115  8.9430848421217117  2.0476633819207861
  9.3545923659906336  6.8215895382138179  1.9233889443269070
  9.3535345943427046  8.2356651889913763  1.9150316086167001
 10.5718840161644696  6.1130509069978718  2.0073389029363500
 11.8065162611217467  6.8202985858800655  2.0581407220501893
 11.8054975885885476  8.2356951877271349  2.0552741925705598
 10.5721144205028104  8.9436664747589845  1.9982860427023141
  0.5755707808337325 10.3664097905834840  2.1658187613260700
  1.8218436147896266 11.0685715572853756  2.1832917885599223
  0.5745012897454824  0.4549184129710758  2.2678589654335859
  3.0577207172643708 10.3586177553674901  2.0971170645964978
  4.3190939516166749 11.0288676123996847  2.0480987865531990
  4.3323634015471857 12.4575286664005347  2.0889467633349179
  3.0858640186581989  0.4459654902566651  2.1839525931610919
  5.5423813782677644 10.2504335374639499  1.9552990631799811
  6.8022665484357816 10.9654041011879677  1.9399115846262900
  6.8027036336000037 12.4205866526902771  1.9797220403178419
  5.5772392719547774  0.4406180145526694  2.0313539056325851
  8.0626688679032785 10.2526867559862254  1.9278716834898002
  9.2876235182558950 11.0311173632486206  2.0038382961418830
  9.2745242549322153 12.4588973383874215  2.0521831638565677
  8.0286688209419683  0.4404850761881103  2.0096287177674177
 10.5503750919213193 10.3597736973304428  2.0515947329884558
 11.7850617021192932 11.0692599561508622  2.1568086685816650
 10.5202841177302773  0.4466486682131443  2.1537215897211390
  1.8289810125396979 12.4846530881772502  2.2327514303058753
 11.7759835638971566 12.4854513377244025  2.2120057251328888
  5.4821629925767761  6.1798443095897770  1.9535632493102402
  5.4804351193551533  8.8748635672732856  1.9064361669963121
  8.1228070303275057  6.1792979549849472  1.9096929626262957
  8.1247117689086235  8.8753802024630382  1.8843112174733729
  6.8028805640702643  7.5275111006722968  1.8901055972307330
 10.0089770167401362 12.5501679810278244 13.1606537911045205
  5.1089119915062149  4.3553344463172277  9.3745254682708374
 12.2033674838967965  3.1567657728125549  9.0684703513885569
  5.4438403394285020  9.0992776165457094  8.1221482279104205
  1.6028626504033685  7.8370527353152193  9.4688496134839646
 10.3242567242226695 10.0103314248757780 12.2798779822459707
  5.9017535011182209 10.0162019832376483 15.5322497102294150
  4.4542808842899211  7.6169723951482737 16.2167578285120619
  3.1178208360843098  8.8784955667371221 18.8058314779098872
  2.1289685885015479 11.2842529309537412 13.1645264670773781
  9.3302787591836989  7.5852428914079661 17.5809452572438936
  2.2662366163397945  4.6551748188079367  8.6366858335530416
  9.5437165801311092  9.6026076021202780  9.6119033704792951
 11.5181552341125446  2.9651367019037176 11.7953869496579422
  7.5248494642350474  9.7271028892098261 18.6256677237838417
 11.4400650501795837  6.7927716809218897 15.7959398328060150
  0.2551909537989831  0.9342428782472832 13.4671301315356438
  6.1002298561468766  1.1320716739651868  9.3649502171390981
  3.4581837013711771 12.5212502723275705  8.0216254723931879
  6.8337371762405672  9.8914026409377271 10.4056680311768162
  9.4782402224454749  5.2844465421952984  5.3915215494981394
  9.0493298952307555  1.6161765343508177 11.0908218015690956
  8.9750785419151313 10.9949049179078493 15.3926070137490729
  2.9734137933564644  1.3209286887133531  5.5837638930328168
  9.3018156381385033  8.3432885076501151 14.2659327574458850
  8.4938605266539522  3.5094462285705288  7.6089344878757430
  0.8821390462784564  0.3009218191612846  9.9520264943993677
  7.2970441250369840  7.3701880780515578  5.3652445840759295
  6.5662750363779070  8.3309568426922205 13.0116466218540783
 10.8125665067449805  7.1926038290968144  9.2660936449967828
  9.4412996834632050  5.8671573665587475 11.3585607968109450
  0.6847501662634886 12.0328548292707715  5.8999474347690954
  1.5397041437472629  6.8727552987062088 14.1909406467120025
  7.4728483956505016  5.5036949570613443 18.5085407143761813
 11.7050349464541092  5.3121337658063723 13.2919182022883788
  4.6336279162503340  8.7743957414631772  5.0128081749208562
 10.6956040986629546  1.2364447645954209  7.0603172303708934
  4.4526735792801366  6.5911576824302109 11.8576279863818712
  3.0318094031486136  6.2587587223210663  5.3937874596474682
  2.2903320397999560  9.3396209810406337  6.6458958801235140
  5.3464842690488927  6.3993306369073899  7.4528762413493581
  5.6910202756405219  4.4192277810447944 13.2748406751333796
  3.8309168353962892  0.2244728325542949 11.5181114962747984
  0.9910561576625782  3.2867858407055341  6.0956818530209214
  0.8446091840150831  8.8998436984633482 12.2277193302734073
  3.1094704183495643 10.2906002308376436 15.7141243803102721
 10.9155816877146616 12.8835116085967503 13.3560379300320893
 10.1546987719232966 11.6472659758401385 12.7511671947822727
  5.3698284464337318  5.0274481376119793  8.6943586055515851
  5.5704700495543662  3.5318805249751870  9.1208430796011513
  0.5869538109931779  3.6670936449147593  9.0539591672069193
 11.9264062498226853  3.1770921590330605 10.0123774175951503
  4.9529600864857573  9.8384562156231468  7.7249197783812420
  5.7934891203826107  9.4169610917423565  8.9942858328197133
  0.9473147092189197  8.5558622661613004  9.5321881490987188
  1.9239303920269122  7.7887689116470931 10.3921040790138761
  9.8621586045156011  9.4352914218731332 12.9442846249871462
  9.8842319834199763  9.8607013792746514 11.4066665313358104
  6.5623962203007355 10.7117637175183997 15.3592099417201915
  4.9999316180609847 10.4261478198815709 15.5414283340773434
  5.2288086682486385  8.2167392938250821 16.2282967978768440
  4.3133960954881454  7.3842727218735043 17.1531917057741730
  2.7350395748031420  9.3037450719940669 19.5934354330641227
  3.1304023099442446  9.5816562833418750 18.1293864328891914
  1.4616843313490675 12.0030605015261624 13.2182427377607006
  2.8847830079600594 11.7052086522453944 12.6915601406899476
 10.1805958612321223  7.3815310261610758 17.1373067990313608
  8.9290165545224731  6.7091366112340367 17.7456088963335787
  2.2664462940182122  5.6300844686034424  8.5966984573623701
  3.1834850212715398  4.4137008557079964  8.9144314919890775
  9.9824143820555822 10.3075710879247087  9.1058157853175796
 10.0277494527072069  8.7567330604515394  9.3922472375663553
 10.5871190905033661  2.6547699422938402 11.7315512376976159
 11.5563401482993857  3.7560198091851742 12.3884898778569461
  7.0916515507174571  9.9398028718383848 17.7781736617004213
  8.2056626341991183  9.0650942272522919 18.3793006628064717
 12.4082613779568867  6.9150568003557629 15.7173930180529862
 11.0420198422493243  7.4260685057835101 15.1636153525532951
  0.0834764745040811  1.5674810966319541 12.7280089591785153
  0.3729716508412347  1.5068448131356313 14.2458879500473472
  6.8641187269729089  1.3115875071114902  9.9498888214309922
  6.4590362779105197  0.5298785473060870  8.6866909458872339
  4.0771006621736161  0.3574908144495506  8.5148254519397462
  3.3208837482858304  0.2689724710425175  7.1730621508454639
  7.7316322735022434  9.7309023681965314 10.0378794854320859
  6.8138650469537163  9.4203883354442652 11.2671712814262310
  9.5383898795153357  5.1836852426670417  4.4246394271421066
  9.0744468837610910  6.1666962419418052  5.5228316954172545
  9.4381359850129893  1.3565333209634149 10.2341998514208274
  9.3011417732764130  0.8971061281698431 11.7272864080946579
  9.4450322797566102 11.2273600012453354 16.2125985123732193
  9.3260657537561720 11.6117680586406760 14.7019996955791967
  2.4227906439404778  2.1368413884013076  5.6534278380954266
  3.5001000513995222  1.4183092890593547  4.7717655953967810
  8.3865973734374890  8.0916226816037149 14.0082599865904474
  9.1766373016898957  9.0593203664518853 14.9312746643998384
  8.6460509348952979  3.9716438479145295  6.7553405431404876
  8.9066636814651119  4.1158988503505807  8.2517644929521730
  0.4666335356310063  1.0824003518439673  9.5269042867334583
  1.4599804680493274 12.6630204128567616  9.2540343287553775
  6.6922504625804553  8.1341000935373895  5.4944908821380043
  7.0770968405606922  7.0743494337592381  4.4588097913513769
  6.1017083496683755  8.8059040499228498 13.7337495990118850
  5.8985251075819702  7.7186635573655780 12.6190280971019231
 11.7637684556826851  7.0377748461530150  9.4240339135648146
 10.3380828828437359  6.6646291717263964  9.9551682711544203
  9.6361165557901707  6.4561074003316667 12.1126876989555452
 10.0734087034011779  5.1371749455584128 11.4992631370471852
 12.3375443522339729 12.4679544143332386  6.2492387505404636
  1.2668626709504389  0.0379888729654129  5.6223234585077257
  1.4416656432990782  7.6185745544043115 13.5480984561206572
  2.4947085524951942  6.6853596679186458 14.2468001573026140
  7.5390071737576578  4.8301204343083155 19.2083615294307002
  7.1344123822253627  6.2977936051372323 18.9625359734265047
  0.1430607170739552  5.7048782662675537 13.4355652313795666
 11.2735328934834342  5.4683249379085499 14.1573228331896601
  4.2616521027370755  7.9329104746699350  4.6794242790370619
  3.9253821090040137  9.0692982002800981  5.6289428663981580
  9.8973409891010213  1.8039215005830496  7.0948032468140578
 11.4025684565715171  1.8515998906811264  7.3421223345388738
  4.6664292141269526  6.1169475573836900 11.0287287298085204
  4.5872693557864075  5.8927400173356723 12.5337610746559207
  3.7819039840064699  6.0771573460542259  6.0004332195456991
  2.5462736504903383  6.9730227589743823  5.8495219725369063
  1.8233799720183625 10.1876127833810077  6.4812149184961383
  2.4028913392663598  9.2767357311740142  7.6129609181917708
  6.1229392299508199  6.4374590437692056  6.8552018998688249
  5.2595333023141793  7.3448395709991203  7.7464811828823690
  6.3699901953901543  4.3099125543559396 12.5845222666536802
  6.1032928846831878  4.1059692453499332 14.0980139691402151
  4.6124776789251429  0.3759969556932532 10.9499537080411944
  3.0627984682478209  0.5199452991073747 10.9902329301624722
  1.3095258429257024  3.9251139884449158  6.7664174132015340
  0.2446614601372959  3.7238179568738472  5.6490241466913966
  1.3560500172125125  9.7314779761233758 12.3847064357884840
 12.3620552559129013  9.1922763492697293 12.2532259021091487
  2.6709386958857877 10.5579837294039027 14.8704971005907485
  3.1533911261187337  9.3116161561088209 15.7115649224080371
