 C  H  N Ni  O 
 1.0000000000000000
     8.3752332000000003    0.0000000000000000    0.0000000000000000
     0.0000000000000000    8.3752771999999993    0.0000000000000000
     0.0000000000000000    0.0000000000000000   30.0000000000000000
 C   H   N   Ni  O  
  20  46   4   1  23
Cartesian
  4.2079763353288584  0.7568840404370341  2.8661484830673181
  2.9869071557512905  1.4579710500122092  2.8573627898478899
  5.4283523152162276  1.4577956764470699  2.8669388688958413
  6.6902392990676969  7.6883387575497508  2.8409001374936218
  6.6903562703363102  0.7469125288099461  2.8502058018153660
  7.6781070314088691  1.7313365421068485  2.8521075898344388
  6.9640453720880720  3.0015808525565979  2.8677941121845012
  1.7256301862886452  0.7471211585604625  2.8415104624874821
  0.7337804167858352  1.7327232724776946  2.8465123340618161
  1.4499712914829412  3.0027729096569402  2.8593859995272402
  0.7447071355015448  4.2182578285095111  2.8616619104891132
  1.4501625386988437  5.4343792274582787  2.8595516660906251
  2.9860275232889792  6.9787103633081413  2.8610809050232020
  1.7245818943117108  7.6874526636355949  2.8416139011231181
  0.7343528571713684  6.7047844581821661  2.8429754421737070
  5.4300562642193677  6.9793170835687199  2.8610276606035230
  6.9642371789809578  5.4348225155666414  2.8628425066197871
  7.6795442977993913  6.7059000758256149  2.8411293672208591
  4.2077999060132987  7.6789011362210262  2.8656195012341881
  7.6692832033010774  4.2178201623862437  2.8657806469257299
  7.7116366147401605  4.4820528957903534 14.2754259927773166
  7.7295479307464392  2.9628074060623102 14.6503397653344418
  1.0165308787528438  1.2165344897918164  6.6002004818640989
  1.2922328185447765  0.8174791215082784  5.1176763178563753
  2.8220824669966462  5.5612954667348049 12.2789054595077776
  2.1617068261263901  7.1054467830538854 11.9611779866458914
  4.4873273641661937  0.5159266828965497  9.3948363051529231
  5.0810685285151793  7.5452379502640143  9.9079847066123783
  4.0875242768439257  3.9272694806952435  7.6449300605492283
  7.7435525527095939  4.6135480100394162  7.3683207363356127
  4.7407151520387556  4.1197985475635601 11.6763563613298267
  3.2863641069244021  3.8915880269999641 11.0728342262606301
  3.6066612243726723  2.2165102847278852 12.7385804754153877
  2.1065348761209486  2.7294590109109782 13.1628816537233977
  6.1667409330908045  1.4640020182228126 13.7684853278831998
  7.2085872348216444  0.4235646053611878 14.3532286339336732
  3.9394730166877197  6.3504811060067530  7.7847757410159391
  3.7509927002486072  6.5933535433716211  6.2469366624627272
  1.3668819597575750  3.0622788199991056  8.5089589061883988
  2.5235164374235648  2.2778491579863704  7.7433827855888726
  4.8899715232245775  1.2894671848216515  7.6086455869967278
  3.6974318920939595  0.2612652844437010  7.3957506335740950
  6.8581050777806913  0.4228423940087576  7.3123415271053993
  6.8626580915124933  0.9848650157435539  8.7694688811001456
  0.9242735295579297  5.0604292558609787  9.6591752880875710
  0.1068126534730451  3.9470089659890806 10.3722806536010950
  1.3792439399611160  7.1374562226846665  8.2872537364128931
  1.2005261733136667  7.5307846474852411  9.7704263234527016
  5.4053059341480427  1.6129782627735720 11.6965274266759192
  4.6531561493722657 -3.0331373591648618  9.8300720500433041
  7.9298206288121360  7.8560680138306491  5.9226727901460778
  7.2082132350188077  6.5749683717608480  6.4292292078531270
  3.2550120753404901  8.2957368664742575 10.8675369326449953
  2.2473820694224549  9.0780571220524955 11.8204377509709300
  6.8358032775939099  3.3839924093391418  7.7054944269233570
  5.7804920816874352  5.3454230095584023  8.7134451225410423
  4.7849935603454119  8.8030550418958047 15.1615142309883559
  3.4752643387541213  0.9579632100091046 14.4942994239596903
  1.5804903532915833  5.6737698762380973  6.5885594970292942
  1.3081904022535835  4.1536184031447929  6.6310471261236659
  5.9087380626312118  6.6146093380606841 13.3781427235199004
  6.5716941868151295  5.4732322981843815 12.5483716137431731
  1.4506346399822601  6.4168281110834675 15.6300207454064903
  2.5434636086176483  7.5045134309102854 15.1847558543917351
 10.3340661974925965  6.3811195416278199 13.5228570724025108
  7.0652621516835845  3.4547048435283219 12.3766961070541495
  5.5974863939225497  2.8333506252952039  2.8751251068928383
  2.8163012912890073  2.8332590426825375  2.8659190078332539
  2.8155705170812522  5.6012404022350664  2.8701255610357022
  5.5987319027276703  5.6018457922662535  2.8731318925602540
  4.2089837280404314  4.2189001865409281  2.8750771638944133
  8.2759676542492926  3.6809564837723752 14.2634958852111815
  1.0489443321200720  0.4445754246023894  5.9843962079596800
  2.0524908799476012  6.1671290517996722 12.5103480632564885
  4.7846626362865141  8.4359469606617665 10.2280624032562866
  5.0425665897117629  5.8869756766539227  9.1061198471304845
  3.8978073948386252  4.5834552426107447 11.3917794271846979
  2.6424925481467341  1.9483691175671389 12.9328001795949543
  6.5847446106048846  1.1228160554749793 14.6223805469767996
  3.3420558302123884  6.7821618937499668  7.1105075255862387
  1.6196099634686936  2.6624011902224760  7.6366941330298435
  3.9314187195062398  1.1290469953199569  7.8087907987195857
  6.6941970418900096  1.2509901902267573  7.8472661981208933
  0.9849423854866344  4.1243989928407556  9.9707290572445348
  0.8396943406041601  6.9390917409854547  9.0759718926065442
  5.2344270864514657  2.1358345285165878 12.5075042102765295
  7.0325432837318793  7.4883662495318060  6.1396974986992534
  2.3066636912718832  8.2721761398918527 11.2257890664779190
  6.8442606682701497  4.3622420343454644  7.6862295516984025
  3.8094161540573461  0.2988599514465736 15.1399582450435481
  0.9088699973384092  5.0102037578846170  6.3328773185513727
  6.7580039449636473  6.1609686665909269 13.2375943287180746
  1.7355726114106935  6.9890933006225779 14.8983116950312731
  6.5596465802523394  3.7796228103714715 11.6001285815023660
