 C  N Co  O  H 
 1.0000000000000000
    12.4758271799999996    0.0000000000000000    0.0000000000000000
     0.0000000000000000   12.7377722799999997    0.0000000000000000
     0.0000000000000000    0.0000000000000000   19.8713392800000008
 C   N   Co  O   H  
  54   4   1  46  92
Cartesian
  1.4603530750697584  5.8756625132921698  3.1719548995675768
  2.7153376052986795  6.5773846757213708  3.1736111395457756
  2.7071011199837729  7.9945043609332274  3.1654552055799385
  1.4606212738319413  8.6981106435055136  3.1527174068529553
  3.9736308372483298  5.8834909979078693  3.1722479090572491
  5.2214292732037579  6.6036284979257616  3.1680777087526355
  5.2083126034728817  8.0337718557729190  3.1636047858892220
  3.9451141788229904  8.7045967923527012  3.1598705719067994
  6.4694195519124564  5.8888513560652536  3.1617189460815767
  7.6960829246538554  6.6435986026335296  3.1619488804645299
  7.6969492541352587  8.1005918603758715  3.1579133558429882
  6.4327052100827942  8.8122897337472139  3.1536421912243511
  8.9253096489952917  5.8896232424242756  3.1624376846350670
 10.1759279524210697  6.6043695375575551  3.1632229914800618
 10.1875440817457061  8.0340282715571263  3.1583212565958769
  8.9616632527523112  8.8113294400290219  3.1515443472193687
 11.4241195182126436  5.8829838494746998  3.1671407900628958
  0.2062456342457360  6.5767401453827237  3.1698103243251339
  0.2143849858869567  7.9946782525964357  3.1601060223449187
 11.4518794133545558  8.7051319681378736  3.1520721123845261
  1.4604372903469274 10.1138833305944651  3.1297970024867920
  2.6875041602560934 10.8299730655471169  3.1293019125063535
  2.6866645880827873 12.2454467673972331  3.1219247620238657
  1.4596668917120250  0.2244922286262993  3.1097160041544432
  3.9223562431229921 10.1233880363306845  3.1442523913256997
  5.1412814846357495 10.8288515538585717  3.1402813399143943
  5.1409572077042718 12.2458355602525746  3.1376321218749355
  3.9227875973330124  0.2146713565783790  3.1348620220760761
 10.2555801339959149 10.8310482659492475  3.1261524452535481
 10.2561777479401428 12.2464968947875956  3.1127485096015213
 11.4748889435112229 10.1240231663789046  3.1305791010193165
  0.2336378254630555 10.8310166340560219  3.1133509448285679
  0.2332631630973448 12.2462401620153365  3.0998983764733503
 11.4747787027389911  0.2156827389599035  3.1066026876826931
  1.4596964174119997  1.6395651053032909  3.1285272526740626
  2.7069808813878131  2.3436667034958023  3.1464842058830609
  1.4598636199546717  4.4630323105807204  3.1651729698971067
  3.9453988763106032  1.6339184542613017  3.1437377333775531
  5.2093890866795487  2.3060276907848709  3.1481610695017728
  5.2223997337999277  3.7354111032494197  3.1537037655200892
  3.9745762565574645  4.4554181649995765  3.1649419329844797
  6.4342080100249603  1.5281385612024254  3.1440534137670433
  7.6980307581323277  2.2386821600414972  3.1441247407629875
  7.6966585816138826  3.6954783229874852  3.1528939819035555
  6.4701191014966186  4.4491820257922718  3.1545236136476302
  8.9624824905588962  1.5285630716612890  3.1307544891001196
 10.1874962756687797  2.3044482028803368  3.1353749606107080
 10.1749816671668079  3.7336355588179111  3.1539248900505377
  8.9255164911989269  4.4472617476910878  3.1591336093016924
 11.4513041319789739  1.6335466989524972  3.1232454982306979
  0.2133098858118302  2.3436844380930428  3.1362040586854776
 11.4232708695052416  4.4547518048155359  3.1619209648456699
  2.7154360593931424  3.7612909106162213  3.1618426911943702
  0.2055380500418702  3.7609822591226063  3.1570849156568239
  6.3747165191653794 10.1933179787036323  3.1373578498189758
  6.3764439750577759  0.1445873411897882  3.1381260242339817
  9.0197024902329588 10.1942352731047894  3.1371981447646844
  9.0198544029361170  0.1450891375494315  3.1163715207614788
  7.6970594793724940 11.5393482010024524  3.1220245211075599
  1.4788685089849298  1.9455888015938094  7.5972010204314691
 10.8608342560777871 10.7355692365464002  7.3048357340761232
 10.2675309087231366  7.1846044926704744 10.3491119558060873
  3.2631124374952525  6.6822599837431644  9.0303209867141145
 10.2962257619180413 11.4569123096187013  9.9123206631630687
  9.2993219163487346  5.7558490522070462  6.4979653762032301
  6.7429390755564516  9.8936497830709165 12.2586727289710034
  1.1316635936830939  3.2282522036007926 14.4362745160302897
  0.7083053751378485 12.1242917544955002  6.2300473096244575
  2.5754799084835307 12.3501906373256336 13.9112762667823162
  8.6017739772911987 12.0988545452486704  6.2998340864495086
  8.1609391203036061  5.4760067851017729 10.9927365156568868
  7.9533654953179207  8.0131597707594135  7.4753631592053384
  5.6016414473250382  4.4622502033393747  6.4845632553931072
  0.6654950432367346  0.4752080716343856 12.0787891096833988
 11.4943226006409507  1.3062253830829913  9.2262972229850320
  9.1649584767345651  2.7573317953170506 10.6707968180605413
 12.2266016003934688  4.9936889989480191 10.0393849292374693
 12.1311984293558019  5.7910082096332429  7.2133314731362521
  5.1793139760177596  4.3048443133355114 14.2402871217854372
  1.2537287548033353  3.2868184220452803 11.6651811378097268
  4.2832871597523949  2.3941491425891548  7.8972745350636773
  8.3498456767591165  3.5173847658420239  7.8168271959353515
 10.3356227318804912  1.6636682386449995  6.7229714290134304
  5.0297055649772666 12.1040801233496857 11.8889030992334348
  2.9249547491400674  7.6971081467459710 16.5648022674448860
  1.6373304974389538  9.7263654555554204 15.0193003803953751
  7.6529059310965852 10.1583082763874284  9.6391587036305388
  6.7316176749629149  1.3132292682460192 10.5412728414982713
  5.3427039702957257  9.9593080739313624  6.5239966581211659
  1.8911225799673053  9.0702360226395413  9.0658859111865127
 11.7919587015461023  8.3090422774531962  8.2622851514644449
  2.3242275168367463 11.3386157367028098 10.6524389163029145
  3.9517117897084040  2.0725122209894034 13.0515895767287819
  6.8402718463459022  0.9864078583483101  7.7816529573806967
  6.6682855401158667  7.0730146421876050 12.9659883153828854
 10.7432414775778859  9.5252637710540142 11.9585074018481290
  5.4037566276180664  3.6998270290741107 10.2333787539433203
  5.3378559668157992  7.2619828371332655  7.1809866046404229
  3.3544562747169064  5.2809642957284852 11.5803943183734930
  2.7456285729416128  5.5580590037632165 14.6804096731378309
  8.8266446218479260 11.2497405215061939 13.4941427527186999
  2.0616871005939763  4.5720004239673777  6.7578481352650970
 10.4539091590056170  0.8825560744343836 12.7589998215986675
  0.5529058969720766  8.3223979978532956 12.9398584587638741
  2.6679699933885446 10.1743235575718725  6.5010902630743717
  2.4062595806110338  1.8324232759236507  7.9100533066904877
  0.8784392282425872  1.8394184654885126  8.3685670921857582
 10.7147441865959703 10.9705864412166960  8.2612614874999863
 10.0499118448655267 11.0777253135548523  6.8616798226681093
 10.6560081471022308  7.5941854457639435  9.5339243126981170
 10.3159634994468465  7.9138899939191036 11.0138563922559278
  2.7553871202650595  6.0944953202234080  8.4341019533818073
  2.7431162781499969  7.5328021130739575  9.0905681403986254
 10.7276795955071531 12.3447597589515343  9.9236056692883192
 10.6630220235260875 10.9153200107170463 10.6529002122649104
  9.0323079083260396  5.6896748234515204  5.5609112977888939
  8.8862286399569204  6.6000539152297719  6.8305598888470946
  6.6124444511919176  8.9527972222513963 12.5350463468824067
  7.0552760715115497  9.8641644999284690 11.3118201184257607
  1.5772165243030996  4.0632901970133979 14.7229744722386506
  0.3534567607918767  3.1115568975340815 15.0061413416684779
 12.3802223835835079 11.7425638099858176  6.6527193384062810
  0.8789581612119310  0.2457005614825835  6.6714410259351222
  3.0695333749846632 11.8575103371262127 13.2272495183569756
  1.7681674578817410 -0.0861427533684269 13.4115006103189156
  8.2168891882506809 11.9782351070818791  5.4022039774191946
  7.8911254473073189 12.5135474074356949  6.8532220751671318
  7.4359584603496192  5.3519626960124587 10.3506046360833324
  8.8199954074901914  6.1068772711910384 10.5948920983775849
  7.9461468054380351  8.7397832554222461  6.8240392376995320
  7.0069529840919769  7.6825321140174569  7.4711280168244150
  5.4506849824585633  5.4308212414669406  6.5807520637170684
  6.4204221841084221  4.2892441582514484  6.9894432732735750
  0.8592352748437232  1.3964803442486420 11.7850056050611940
 12.1732628184220548  0.4936108194019291 12.3001358098736535
 11.0832651914455464  1.3818627892545403  8.3196877971408760
 11.0140381066917712  1.9777854705578262  9.7514755918670932
  8.3453693981210364  2.2072935366254312 10.7365660098668947
  8.9090920791815496  3.6524799391774807 10.9981653571765428
 12.2396341775878685  5.1249290815209152  9.0649130667881668
 11.6413673985202060  5.7130231451548976 10.3664850945355518
 11.3095329006711722  5.5725462071501628  6.7270027305681657
  0.4334252034506519  5.3661686518450340  6.7733355282388716
  4.8153059412336390  3.4798561058603066 13.8202253302151679
  5.7879088437393635  3.9969742864061826 14.9329568544228621
  0.6321697685960699  3.8235863563917474 11.1049535843035372
  0.9753451248939868  3.3927395937767484 12.6104579055121206
  4.5234066169044249  3.1444874094055191  7.2978596941432761
  5.0163755879477980  1.7489134388655594  7.7663752918958284
  8.7314757051414080  4.3478287323831593  7.4244105466879695
  8.6758610030502439  3.4472423838630282  8.7421055834949897
  9.8405654404594323  0.8604482949992099  6.4414324127345823
  9.6331650847166994  2.3065564598554062  6.9675919888200655
  4.9716467173400396  0.0030828461624094 12.6267392957445619
  5.5550523106404279 11.3169403805605366 12.1874937768416398
  2.8579690008360310  6.9396906069619950 15.9310068553462099
  3.8348288432640394  7.6649015307977555 16.9041778041320008
  2.0527675735565172 10.6000016842222529 14.8620817448319791
  2.2209153556166719  9.1975660098327854 15.6111210541952996
  8.4923728992583261 10.6695465364834909  9.6956987568270421
  7.8670953651148485  9.3685526232522971  9.0979895970852542
  6.2459682467646891  0.5814627267290046 10.9873083654985741
  6.1434965007192677  2.1165466407235298 10.6004701150053684
  5.6679062444524337 10.4098932466281511  7.3242459901981913
  4.3654459584092917 10.1948504352058436  6.4719248741584980
  1.9805060501880509  9.8568798978816510  9.6613887649988595
  0.9281175397482909  8.9112561735181668  8.8917968910052760
 11.4136324389572597  9.0234027003237163  7.6919897704255069
 11.9844473781990271  7.5190152710471487  7.6970240917006008
  3.2147467039687405 11.6605016803968766 10.8963274964390138
  1.6766994736831740 11.9802756457305328 11.0266385188572329
  3.3831954552146852  1.4892803810789232 13.6055582166877862
  3.3298981445188667  2.4625568707389731 12.4058855043024074
  7.3087725468025653  1.8297442054569970  7.5994119641198257
  6.8478728411904211  0.9423811906112159  8.7768712264955386
  5.9754059820455527  6.4437541947952823 13.2422840613570632
  7.2350994066068477  6.5445247756621203 12.3568058138532777
 11.5767604145834859  9.1759768786072691 12.3840238453274818
 10.1964596374753214  9.9093229471905708 12.6760374616222400
  4.7515412743879386  4.1929326142142616 10.7883229068537752
  4.8955862088759270  3.3815905266560113  9.4487643779646024
  5.1817525185798941  8.1876891209559997  6.8428039007525738
  4.6779663803144711  7.1289492095057581  7.9086247447069749
  3.2652843546943964  5.8450242395449070 10.7742541853221176
  2.5857583386863676  4.6633274765228538 11.5405483576303176
  3.6390796084512949  5.1228585659970394 14.6358095676675042
  2.6245294912837536  5.8982151735972259 13.7700092708569155
  8.6639403229843008 11.3078125026979173 14.4506864423095802
  8.0385748673040247 10.7690068673709867 13.1144167437194668
  2.5838434308540408  4.4981859950418706  5.9397144768854284
  1.8277743963114474  3.6378725464040933  7.0108754759763574
  9.8227695056098288  0.1394426922181095 12.8780794520709883
 10.0230341780757932  1.5116082367401755 12.1420763632856978
  1.1967776306611175  8.3111427993543234 12.2096732279922886
  0.9933519203134700  8.8408639308744110 13.6735181928433818
  2.0398562825918281 10.9326368688707323  6.3650779640622455
  2.4099219186120560  9.8009349007061601  7.3754605951201189
