 C Co  H  N  O 
 1.0000000000000000
     8.3817804000000002    0.0000000000000000    0.0000000000000000
     0.0000000000000000    8.3818243999999993    0.0000000000000000
     0.0000000000000000    0.0000000000000000   30.0000000000000000
 C   Co  H   N   O  
  20   1  46   4  23
Cartesian
  0.5980082362860930  5.0498286273974227  3.3180695650355552
  7.7563960476834959  5.7481750493581467  3.3081492646441260
  1.8228013248100370  5.7469248644510653  3.3151160134474593
  3.0857231538750938  3.6064940392082470  3.2757440313277351
  3.0865070198288942  5.0381877751529878  3.2883803944541250
  4.0742207926900802  6.0255159245946439  3.2877267307615918
  3.3644443813568525  7.2902908549428869  3.3102391962848938
  6.4919829176574559  5.0385384525498722  3.2790001687385373
  5.5049461967326074  6.0260334670938285  3.2843639597752383
  6.2128900139326806  7.2900973507743680  3.3084475062040233
  5.5160384900325274  0.1318095218655282  3.3019784280118047
  6.2140525399185051  1.3550396018029565  3.2866847947968809
  7.7554354101591034  2.8991652648981661  3.3054477814373371
  6.4926156744353687  3.6068536341772517  3.2665288776864241
  5.5045127392209077  2.6195527915240584  3.2486006997766652
  1.8223073017091720  2.8985971873820318  3.3060206489997093
  3.3633811565196488  1.3555125262374834  3.2855341252247703
  4.0736002064978836  2.6184096642998056  3.2534518108884121
  0.5979438549973496  3.5956374271435307  3.3169167680194893
  4.0620040165736055  0.1316668125225085  3.3013642671550829
  0.5963126491367983  0.1393487013959426  3.3840706861880760
  6.7585453088674834  7.1312393600306070 13.0366152137737945
  6.2408463310884219  8.5930878229695118 12.6851136679807119
  6.1318473946830805  7.9430040464762275  7.0263933874658075
  6.9902310058254375 -0.0417200989998888  8.2648702006236388
  2.1679100111647904  3.8316309915863460 11.9058403568048572
  1.9905280338592908  2.9603979049619671 10.6420876919899872
  0.6244857468780111  4.7344962135557243  8.6312725476844570
  1.0747001944856829  4.8360258878864215 10.1113653908621384
  7.1669451539991504  4.8091020777227369  6.9579366808800511
  6.0812413858216079  5.0883049653105630  8.0263328582551079
  3.3851668898399327  2.2296105369387575  6.5896012630790697
  2.1630706556143546  1.1842476423494899  6.5705246738289418
  5.4147820133550963  3.5105395487939779  6.4817493242570698
  5.6715127584719580  1.9735439803826396  6.7636679634031864
  5.9806862680140656  4.4355386995489985 10.5630025754452497
  4.7334196943400029  3.7968504512029360  9.8091740677751282
  1.0852263577111210  3.0197474002146802  7.1252867659715724
  8.0401332376815198  2.6766804248355065  7.6407022629677277
  1.0268422639261514 -0.0870930065337991 12.1903832326795580
  2.5830568229121682 -0.0944050430809767 12.0501171563256424
  8.2453466863974860  8.4017484487127057  6.2746565772299521
  0.8987450215997296  7.3531492722787251  5.7464298407672283
  3.1153956663858908  2.2529129596420776  8.6950117000819471
  3.7105845011590683  1.6110623938846131 10.0043061763703882
  0.0959110466495598  5.9890550789322416 14.6453130278159147
  6.9643280887051295  5.9121440020109128 15.0774840252393680
  4.7411835688617403  2.1388848060731944 12.5170519428502605
  6.2153823803751820  2.6232152795376074 12.6674912399143587
  8.1400446237989250  3.6626434245280790 11.7940776962101630
  7.3358898808783923  4.5535435224843388 12.8129629479099787
  3.6779150409369779  7.7705590494795027 10.1105428135970765
  4.7427266632477423 -0.2782059661497767 11.2359309021264568
  1.2713237242164399  2.7805145057275178 15.4552182606204997
  2.0564896812587086  4.1012233926933250 15.2771105357236969
  7.2454596556707660  7.6627944819132061 10.6306398352716425
  8.1910275583533299  6.8960588464701678  9.6274804332364639
  2.0517646949258452  6.9089053552530713 13.8634927376621349
  2.9035434182104725  6.5253198138435407 15.1305341116895917
  4.5062908897126359  7.0795265509043173 16.9031091739285699
  4.4621077157522926  8.1741090770291258 15.7921172655783870
  4.0895740160093670  4.9816708880836700 11.9705429701924988
  3.2840838156078087  5.1569095340729127 13.3200804331609053
  2.5196247963970881  6.2280575155226989  8.9872248882380852
  4.0530156818528331  5.9630592743188124  9.1680609988915744
  4.9184661270401620  1.7406675510565117 14.6897497573570348
  3.6845254200445376  2.0652971406966478 15.5972705981234192
  1.9937222616212389  7.1196181025693148  3.3290355167542680
  7.5848932229085531  7.1200819317068644  3.3241368364966171
  7.5845376897841383  1.5262281048694799  3.3210264227787332
  1.9928725373918428  1.5265064727719595  3.3124113335405641
  6.4135962037664731  7.6942948734813204 12.3107474378881179
  6.7187065448187688  0.2696527013270778  7.3554717110692023
  1.4602081868579340  3.4784315653044553 11.3047136441978040
  0.8909508856954506  5.3989321363983249  9.3174797131044720
  6.2686977209033881  5.1861026297932291  7.0685243677062690
  2.5015196302894038  2.0008616143348825  6.9987688049392318
  5.0386310005993371  2.6079580922275061  6.3721110726540777
  5.2456966332884702  4.6353132324106561  9.9421376235154320
  0.2243852175028007  3.4367522885590462  7.4152024434877806
  1.8440409744622182  8.2046647658075624 12.7127949753289418
  0.7372630765331792  8.3113427155695430  5.8144277778955438
  3.4188577909123414  2.4749401004851350  9.6148213524331947
  7.5636321600846763  5.8499955865772622 14.3108333202084452
  5.5857115039763228  1.8977901054626032 12.9399795726531472
  7.2211636947321693  3.9138591669380407 12.0766122838950203
  3.8979051216186664  0.0404462826974758 10.8561961100548885
  2.0648198300854017  3.2522230291393641 15.7638429337142014
  7.7292829586679783  7.7560414316881738  9.7784761786944205
  2.2086262688077407  6.1686242144837076 14.5190451732317776
  4.4803492106436735  7.1809107438367263 15.9359442106804163
  3.6417161217961360  4.4880881911005668 12.6856959196353198
  3.4083021352340208  6.6631117903725787  8.9293677353919776
  4.4940533285631776  1.5105387534375978 15.5489402373529053
