 C Fe  H  N  O 
 1.0000000000000000
     8.3960796999999996    0.0000000000000000    0.0000000000000000
     0.0000000000000000    8.3961237999999998    0.0000000000000000
     0.0000000000000000    0.0000000000000000   30.0000000000000000
 C   Fe  H   N   O  
  20   1  48   4  24
Cartesian
  4.1280970409858604  0.7095507858357554  2.2166554663620390
  2.8976448986883891  1.4000510269704129  2.2321610739995248
  5.3512292117160047  1.4073352479103136  2.2043054070304771
  6.6124928394275173  7.6628625635148628  2.2148243942851740
  6.6133875571131560  0.7023032367662956  2.2109082551959740
  7.6050386828955459  1.6967017604148693  2.2161453724404181
  6.9034326328060436  2.9573043441661566  2.2098199290780269
  1.6427201240247107  0.7004657972399985  2.2135446209040213
  0.6464778336055410  1.6985103272387923  2.2262437006879590
  1.3441221347538546  2.9517170931060619  2.2462995164705521
  0.6547302556433650  4.1837825195032767  2.2258982964563043
  1.3510220958593575  5.4083997452304011  2.1986075156063580
  2.9027482461059999  6.9586281782112858  2.1945993750065909
  1.6408728525839034  7.6610291617084281  2.1960953996261732
  0.6478680148597454  6.6683702469921915  2.1978745813528890
  5.3569374388532269  6.9614782116383171  2.2307666535250559
  6.9069007999298657  5.4138932115671494  2.2336353027347129
  7.6079281820126132  6.6671886952745529  2.2130312434548181
  4.1275461881970594  7.6540280708772945  2.2142971110812280
  7.5984014522345547  4.1830974264123073  2.2249867519209152
  4.1306180299007229  4.1879124923071958  2.2333436885317801
  0.8584360300567080  8.1455020869058181  6.0781659969937776
  8.5667911689389111  0.4880620465479121  4.9005438324192205
  5.0048176718244797  0.3361514669638084 13.6810878379509937
  5.3810738275057313  0.6550580440884496 15.1773285048488500
  1.4794968120273388  8.4909119399148985 16.3409249327642918
  2.2006135647809546  1.0757022489131098 15.3490428293940226
  0.6020292330973704  1.5189198016222745  9.0369359758199312
  0.8176147437976116  2.1161926573386065  7.6238880830810611
  6.9731192858738167  1.1214965752202641  8.1209896090564868
  6.2786454917173211 -0.0368275484329840  8.9318034432985538
  6.6544073479820076  6.1998827662390514  9.7660827323796120
  7.3568130904839188  7.3623376314703997 10.5091980609853817
  4.5740224169011228  6.3390736511291230  8.4002828342407359
  3.3188286532420244  5.9972127974346607  9.2618114178606739
  1.5803300042809449  8.1411581809446929 10.7826821148176073
  1.2126537192819846  7.7278306175078821  9.3522248815909794
  5.6547182166151515  2.5414116712779942 13.9564050650633575
  6.5797746106777115  3.8018959551279794 13.8731470342296390
  4.5869114935751423  3.1959385338391701 12.0704756305585121
  3.9336645320366541  2.7859487260597113 10.6637944846341419
  5.1013072780671358 -0.0028231955044998 17.4636076816197274
  3.8106953580153751  0.5094604890872092 16.6964912558331520
  5.0731639686607011  5.0967742484044436  6.2783653064009108
  4.5423770674111301  4.0691061352021975  7.3239736757129554
  6.7408351050672506  7.0977425774758949  5.7225587768001294
  5.8335856956015020  7.7337563743239812  6.7613713005328799
  4.8547092266631600  1.8065551710396084  8.6876108135733006
  3.3190588934359506  1.7891709961836091  8.5760412300315831
  7.9093910998041235  0.8207907410511712 17.1383529501362126
  0.0767603251264901  8.2365357260675349 18.2128299611794766
  7.4953495165120341  3.0263362765132382 16.2951892226954129
  6.2480265386251990  2.2599295729319180 16.8766319076904878
  2.5375221576903879  2.4951137046569607  4.6174731157079947
  3.3819514203477912  3.0574051936716149  5.7808051924332053
  8.3834320972429630  5.0882808634970988 15.1952339630215523
  0.6878440693342868  3.7784305655882302 14.6748517493383233
  2.8647553856153549  3.5534960589188977 14.9819168380101733
  2.6114428677289556  2.9246574631456390 13.5703698443447944
  6.6625041650258767  4.5819731148310989  7.8232545656568950
  7.6938437366770245  3.9833021590424909  8.8077590701410120
  3.8179781867738209  5.6638173988081926 15.6130269099554937
  4.7207599445860762  4.4926921276228944 15.0699114934347183
  2.9267997897492748  7.7743355592180086  7.5150681590706920
  2.8254208260334370  0.6785799523795281  6.5858946203696993
  2.9751319712356454  4.7869645519610531 11.2738651054863936
  3.0916308267640011  6.3257853849313834 11.5560955246930543
  3.8260703523648978  0.8474286351368090 11.7809020508250804
  4.7183356201660764  8.0384813667932651 11.3348077072771254
  5.5251925103104673  2.7835064422523099  2.1890629914018960
  2.7262559361095691  2.7796437220613606  2.2743147251696727
  2.7303974182829420  5.5818724467478109  2.1819601222918168
  5.5277110391036715  5.5854661142872901  2.2545332403552241
  0.1457108219339173  8.0539426916781203  5.4064501436207220
  5.6526783174923168  0.8131227240909590 14.2386808540599787
  2.3184797142107652  0.2257586169647733 15.8274631982107792
  0.2079748119477793  2.1429428472711742  8.3858959176189334
  6.1187838334987310  0.6380413072287072  8.2221487233002897
  6.4701850516515700  7.0661916428607032 10.2128610637619612
  3.6083898019923311  6.2361232857517734  8.3418545125383119
  0.8873719101318550  8.2585113685424378 10.1043788558345646
  5.6508096625858117  3.5156818067198752 13.7260757874769350
  3.7464106080989579  2.9228340493226543 11.6332197904166641
  4.7646695839825872  0.7223509906131527 16.9107339898075821
  5.0130951468358314  4.1320185918885244  6.4674383661190236
  5.8508759596211721  6.9877450914775210  6.1201676678919004
  4.0500772650285715  2.3541308861752994  8.9004013200447840
  8.2995720681453538  8.3031549807502483 17.2580120834253705
  7.2040559671424962  2.4134062834589245 17.0081230806382564
  2.6283724622280862  2.4547770580449906  5.5873695898071301
  8.2008087318105325  4.1775095097417010 14.9044334475244717
  2.2571833615288033  2.9418574414004968 14.4814780990842298
  7.0992091554784444  4.7515611529273691  8.6830616876654130
  4.0150522000888467  4.7165861706594301 15.7286882413953002
  2.3848039476728076  0.1800075928320475  7.3073793842814752
  2.6964681699944708  5.6717656381981172 10.9468915370195319
  3.9453844166490470  8.2725398747347469 11.8895051295292831
