 C  N Cu  O  H 
 1.0000000000000000
    12.4568083000000005    0.0000000000000000    0.0000000000000000
     0.0000000000000000   12.7194003999999996    0.0000000000000000
     0.0000000000000000    0.0000000000000000   30.0000000000000000
 C   N   Cu  O   H  
  54   4   1  46  92
Cartesian
  3.2625473546376043  5.1319148998313011  2.7617922763715130
  4.5138691910064219  5.8323193932722814  2.7697079007021239
  4.5052692049587373  7.2473996615092497  2.7652499356757252
  3.2622257871063827  7.9495568147379325  2.7468996201668641
  5.7673926881550281  5.1383940639395398  2.7757194912728043
  7.0156548067445712  5.8514459284351865  2.7753751618354712
  6.9991094059818764  7.2726013667910347  2.7779391462248912
  5.7407711757294990  7.9534233802161216  2.7748596688802523
  8.2655677474448570  5.1445788596445619  2.7655273835330907
  9.4919949319461132  5.8958966732029285  2.7512686752238591
  9.4916157816090561  7.3445597353936982  2.7512173130925062
  8.2199988401283139  8.0452755363660415  2.7743173568358448
 10.7180660330874247  5.1444129668558523  2.7364874186905830
 11.9671006619912070  5.8514310704103618  2.7303476372980349
 11.9836515788643947  7.2727597518430418  2.7226028150659287
 10.7637303751563458  8.0458487119184667  2.7290138992974389
  0.7573772341116536  5.1385241740059184  2.7389724060465599
  2.0105816822988736  5.8325549869391526  2.7471606681133829
  2.0189180879723541  7.2467714560593341  2.7373699063854060
  0.7836726622968616  7.9533140432545846  2.7200507971757699
  3.2621988201404637  9.3616455986576614  2.7384940470645631
  4.4855552689359470 10.0780433864452377  2.7547254814300528
  4.4848211233501658 11.4930607558207587  2.7521654962461990
  3.2622412872868782 12.2096225566076573  2.7356007926619870
  5.7161773320078595  9.3710708135751162  2.7737700869288071
  6.9361986551978774 10.0717500445812327  2.7853076393585430
  6.9351913494991866 11.4981050329551646  2.7803798730249087
  5.7160199211530918 12.1999913044748087  2.7665242731300030
 12.0462475651170919 10.0713652813945167  2.7057639796139341
 12.0477864967035480 11.4988319381515254  2.7110312035376940
  0.8086141707009175  9.3714939643958299  2.7094335008850150
  2.0393665958642382 10.0791339043064418  2.7172118196993749
  2.0397821038831006 11.4930556122066161  2.7156263251127339
  0.8091856445823157 12.1996768135049347  2.7103855291673971
  3.2630257340952507  0.9029098183592169  2.7448939824924961
  4.5060390920410294  1.6058285742974558  2.7590155232641078
  3.2632097234793149  3.7225769938856494  2.7613775263481037
  5.7413439396842945  0.8995814349568172  2.7646641025084233
  6.9999987568568169  1.5820813831034668  2.7660383516936728
  7.0165273289485555  3.0033503601743607  2.7689811192426723
  5.7683252485869492  3.7159981747135298  2.7729399360855753
  8.2210756346399112  0.8087538387045331  2.7653360707012533
  9.4922139315404070  1.5105919091651141  2.7541049670745053
  9.4922052075793086  2.9608052941128116  2.7500677713978270
  8.2660396731532622  3.7109466426873019  2.7631719220468920
 10.7641151898295551  0.8074462812553946  2.7385558999762769
 11.9848944699201745  1.5812481264447409  2.7295463542661551
 11.9669603522152279  3.0032194955879796  2.7338283931884062
 10.7177826894628723  3.7110369795703444  2.7365834609063882
  0.7848396203561004  0.8985825348060287  2.7258806384502243
  2.0195475245526424  1.6053998520525685  2.7406854683605801
  0.7572275277701520  3.7157608138032452  2.7414932757741179
  4.5154254869518127  3.0213560639496340  2.7656147939248501
  2.0103794537627482  3.0205727217885201  2.7498669076870410
  8.1413706044069549  9.4081957665443863  2.7871324550388299
  8.1431666169417998 12.1641956532130102  2.7833607551821893
 10.8427175743291144  9.4073443804085262  2.7166536245396760
 10.8424263046385345 12.1633820267198338  2.7399043183430578
  9.4934030688101085 10.7825349370277603  2.7791055526023900
  7.2325990279382593  0.0783015175864137  6.1652564015239681
 10.6190822461429537  7.8346460625516823 13.9877159759548739
  6.7208678305350187  9.5095597232503533  7.1517558777661083
 10.2595748539565843 12.0535930043560935  8.4297402951334170
 11.4610671010640495 10.2134957017768251  6.1797840267190196
 11.4986325633809994  1.0893410030950050  6.3112574871840907
 12.2360581899587775  6.6396083621883042 11.7903278531758389
  4.2143656857427985  4.4038930620825525  9.4281826342153554
  4.8086734039353036  0.6227716537583931  7.6212991234748877
  0.0842978506542820  8.4434611845830538  9.7345283655580026
 11.6632746729312693  2.2010645259197292 11.5632581338873202
  5.9247416278831988  7.2086791015604499 12.1348561170952109
 10.8341226649381142  3.9626604968204302  6.2754079889926144
  2.9709870462322980 11.3366340314693996  8.5156016373960881
  5.1315831927850155  0.7509033668321196 14.6485986559792440
  5.0195705010638232  7.1169357568719356  9.4626558022286851
  7.7927875008055869  3.8383168381394968 10.6340289888820738
  9.1632604584313153  4.8835873184265006 12.8071507001231932
  9.8425160611075988  6.5661277798602065  8.5888464596978551
  1.3322280674106184 10.8481681829473970 10.8490837460549923
  8.8135888749910301  9.3332845547128951  9.2634567355955362
  3.4348919185782343  2.9985671366547919  6.2690448842620468
  5.9771486312329927  4.0919227206906630  7.1646108296027071
 11.7282571577005132  4.5128549157202871  9.9309897298816594
 11.2286323687470126  7.0688291942141106  6.1667352947112697
  7.9017586032665728  0.6752909662446830 14.1868904416670070
 10.3882727318756753 10.4508402022600908 15.2757189825215089
  3.9512950984831852  8.8463693430499752  7.5748059757454254
 11.6835818471812001  4.5331377640108963 15.3854727885975731
  1.3999553327967822  7.2346311484866037  7.4134313983781395
 11.3053727585539505 12.1709120452343704 10.9381139880095972
  8.3376426844037166  1.1235105749186776  9.4806416139616214
  1.2833530153602708 11.9300549627033110  6.4586603641152749
  9.2817955530672762 11.1680729172915942 12.7828406046867684
  1.9225112364699652  1.8704378054571169 12.0897244914170940
 11.9298640044673476 12.6193366666184481 15.0138131674303565
  8.5387865674365582  8.4289126775015024 12.0530418888537021
 10.5058240648201018  2.3657734670009449 14.0783603030564439
  7.0914034429884563  6.6247654542022030  7.6596318050173595
  4.0021193433217714  3.1422521468069471 13.5805259920176518
  2.6579939573865623  2.0678282281293288  9.4637406361315008
  1.0554203302438641  6.4929671713287478 14.4125913731181079
  1.9060564258440427 12.1765327547136035 13.3241420277053155
  8.3419881995300695  2.5877860361798843  7.0301839245639899
  5.4475354014956894  4.5690909185881274 11.8433315768793221
  1.0952934632605225  4.3076243312828923  7.4863583794832254
  7.7145214415521650  0.9173554769427055  6.3926941726594686
  7.1609654424610030  0.0948092144395642  5.1945993046289436
  9.8552108536671579  7.9922082632660061 13.3847638871046577
 10.6771057538783509  8.6682061189300814 14.5071028343294017
  6.8821667502720887 10.3613378289963176  6.7043762186762939
  5.7352661742573838  9.4033144064662615  7.2120135276731645
 10.6904239656097122 -0.0513554928418774  7.7932724986184345
 10.7853656040340269 12.0927518046356326  9.2790219688124402
 11.0125079981874237 10.4685766467150554  7.0104013110304679
 11.3816785864836323  9.2352586984817808  6.1313119694400866
 11.3897665664023613  2.0639916326490457  6.2496808216550637
 11.1739321849546744  0.7529603137540928  5.4569167303983086
 11.6953863396303657  7.1180998788809653 12.4570344729076954
 12.3832246618100079  7.3037596994254663 11.0582454128674286
  4.6346159906708797  4.3754532019909487 10.3397988336362943
  4.9398571360841315  4.1850706110549503  8.7949983529259033
  5.6113008916775780  0.3904445955372338  7.0946979016944267
  4.3432985499240466  1.3041692777661464  7.0900643052786876
  0.6008550970351336  8.0653967281822130  8.9850670146153959
  0.6066778912892885  9.1979463476102268 10.0882829597207913
 11.5398262157609821  2.8913525978570376 10.8651119355336565
 11.4753815638255787  1.3054328165215350 11.1902398841173873
  5.3541581571291985  7.5799196304815908 12.8299997834992539
  5.7932124094793487  6.2100924565566187 12.1828208498771673
  9.9330546413151044  3.7149294198290255  6.5917915405861827
 10.8015866749739864  4.9080844005835784  6.0140989235623117
  2.2955551746434630 11.5583693221602619  7.8099224773902423
  3.7179178610088699 11.9424704341535861  8.2895680799255764
  6.1101796943628193  0.7476233342720439 14.4748943032513342
  5.0562320373555929  0.7838156576789023 15.6179901165928854
  5.2698661657606172  7.2838460853392295 10.4058332708179933
  4.5673790344219345  6.2348224886973611  9.4620885633575949
  8.4155912380636781  4.1956422671507694 11.3168991014102787
  8.1067811784204977  2.9355292230422370 10.4308689939783328
  9.5830164130638273  4.1472335480402123 13.3003202133585567
  9.8705255850928584  5.5376927429356657 12.6663499468166290
  8.8898562966762995  6.4472598830532641  8.3563419927343592
  9.8598735952933954  7.4513298129230927  9.0096353689611242
  1.7039553634482238 11.1225402507259155 11.7220397081939129
  1.9702237146745760 11.1499125719398950 10.1576838333441657
  9.3345418427787852 10.1350048892501636  9.0629252599612506
  8.0425094218856525  9.3800436545506614  8.6527816214874864
  2.6474501681995024  3.3526461948576833  6.7527484335533154
  3.1491956608737595  2.9213986230548801  5.3413226960813347
  5.1772705020249550  3.9353141271310323  6.6162562427697331
  6.2548954207527059  5.0365323332848453  7.0780696609564258
 11.0087182214208283  4.9600813627863083  9.4349797171199317
 11.9218521037336505  5.1570754536762813 10.6561929463343699
 12.1715420755846697  7.1072081953977291  6.4451465703647077
 10.7377482373225206  6.9508001398868382  7.0209330796004705
  8.6082263484322787  1.3521037011288295 14.2235735540867978
  8.2603818765946393 -0.0408138646205078 13.6179873508144915
 11.0017880729032704 11.2514766681707457 15.2650006810793801
  9.7980332529208791 10.5747002578327365 16.0387170005147048
  4.2294022258324624  8.3112571890341513  8.3616016354824332
  3.5650887145363965  9.6844165109451730  7.9430405299283047
 10.9887082219844476  5.2039567772629356 15.5093574950028010
 -0.0036292246340012  5.0594521212548376 15.0498777842682632
  2.2720400042062381  7.6708376476439621  7.2791265502079190
  1.5509456009876619  6.2641777749072158  7.4804223768293729
 10.6801648278901204 11.7590106910060470 11.5873445796411492
 12.1657390301033139 11.6760129649760955 10.9761696197007002
  8.9585265968415175  0.4201603960707862  9.1545240654045941
  7.4727046848881686  0.6869475387630171  9.5720844249928128
  0.6052752585737854 11.2287260695790589  6.3063185232009564
  0.7551048274028949  0.0338499726106108  6.5204245175643809
  9.6511459964454165 10.9172778961955519 13.6688634008648435
  8.8374337355048329 10.3395183113331548 12.4892103209003675
  0.9617078002710563  2.0957277875947788 11.9914836907016795
  2.2546531325165562  1.8711455313429046 11.1481567878644583
 11.4662690832058445  0.7138757355226765 14.7084990136500995
  0.2714759097929057 12.5095482291506706 14.4503217709300422
  8.6578390522043946  8.6103688044484361 11.0938779654730055
  7.6743624541745588  7.9583583380146274 12.1294660351157511
 11.0101659981865403  3.0612544098802159 14.5784891439592439
 10.9061529778739672  2.3473643087814735 13.1702877205930502
  7.1184162926307071  7.4616907360121987  7.1510337879670596
  6.4422384000402602  6.8169818906675452  8.3901037072711500
  3.2065414097924116  2.8006624656219978 13.1077930038300199
  4.4223385607557990  2.3389645858389643 13.9735749262187241
  3.2383170775485985  1.3667536250674672  9.1165672947825378
  3.2010526163242976  2.8982609608684164  9.4101519132097859
  1.0502773232120608  6.3906528171407109 13.4362193530662513
  0.3682374461698362  7.1746348432730187 14.5451495704669203
  2.7220177587071790 12.1178772054594059 13.8545372019495456
  1.9670714955745734  0.3506646851575536 12.8671196648943127
  8.3876271009284693  2.2441430233833599  7.9562472468397685
  7.5093433209521612  3.1276993334732142  7.0239581214676887
  4.9866898416958421  3.9999636686726365 12.5388477767295683
  6.2961414778943192  4.1307606621652075 11.5631591934912024
  0.2225161420329415  4.1776695383223164  7.0523985321082412
  0.8742230986892209  4.1818332367940405  8.4345785874261754
