C194N8H16Fe1                            
   1.00000000000000     
    22.2426796779163318    0.0000000000000000    0.0000000000000000
   -11.1231552586836617   19.2616774021789254    0.0000000000000000
     0.0000000000000010    0.0000000000000017   15.9838884553252054
   C    N    H    Mn
   194     8    16     1
Direct
  0.9999999091716916  0.0000035571158605  0.1126900051986368
  0.0370613734766394  0.0740915915011442  0.1127867167761778
  0.0000149346520644  0.1111208776624082  0.1127190937643050
  0.0370708625171332  0.1852037229501207  0.1127916655180670
  0.0000238128517083  0.2222361160722315  0.1126987456274122
  0.0370722021021379  0.2963140138839648  0.1126818249912560
  0.0000183093870092  0.3333404028630582  0.1126632255157034
  0.0370771082153993  0.4074261428282995  0.1125691201849364
  0.0000073770831293  0.4444389835982818  0.1127020083074513
  0.0370557682087664  0.5185177431654893  0.1126736464784699
  0.9999932737283359  0.5555448356170558  0.1127616608434820
  0.0370307146558133  0.6296158362067104  0.1127192186672872
  0.9999748767299437  0.6666468261557839  0.1126977617819307
  0.0370219324796750  0.7407294561277240  0.1126276596499451
  0.9999762844189206  0.7777622861871052  0.1126159347803295
  0.0370293524494016  0.8518482833908436  0.1125959222327211
  0.9999887308319657  0.8888860958433114  0.1126249184680574
  0.0370415937565056  0.9629679627808514  0.1126875175803761
  0.1111292954408256  0.0000297562037943  0.1128151452909307
  0.1481860524210745  0.0741163491069798  0.1130209737868171
  0.1111450978385236  0.1111463505531773  0.1130008381925336
  0.1481925981436305  0.1852174963204263  0.1131503898415218
  0.1111523424849281  0.2222493536868626  0.1130035838076182
  0.1481981685355649  0.2963292151855583  0.1129668633076193
  0.1111633879134644  0.3333679439040793  0.1126770003870305
  0.1482024890806457  0.4074366570161274  0.1123426522173077
  0.1111629765472557  0.4444616951554892  0.1122456075457663
  0.1481993578392107  0.5185156572813412  0.1120497988642128
  0.1111411719608668  0.5555306359843613  0.1124249602017002
  0.1481674312828432  0.6296102766595197  0.1125395285808395
  0.1111180024183369  0.6666473214816762  0.1126737416920989
  0.1481495326800655  0.7407295431208993  0.1126359540726867
  0.1111055665826015  0.7777702844757144  0.1126070737279434
  0.1481443563891602  0.8518484379808768  0.1126024671224215
  0.1111081883214595  0.8888960828160180  0.1126218759133977
  0.1481571266591786  0.9629826961103802  0.1127615263553494
  0.2222394792053777  0.0000432747423673  0.1128534148181046
  0.2592737869854531  0.0741211293358290  0.1130610052428054
  0.2222507423736104  0.1111655608497344  0.1131838721709357
  0.2592856454974353  0.1852293080000607  0.1133922750267473
  0.2222581991798691  0.2222585743591807  0.1133812862795338
  0.2592731391494141  0.2963154731922089  0.1135113320949230
  0.2222599006408927  0.3333658146237468  0.1131915849078311
  0.2592611775919949  0.4074172053824796  0.1130186785619998
  0.2222549771801994  0.4444635736846152  0.1124021038331549
  0.2592755079763194  0.5185146608496893  0.1121911777949620
  0.2222557917367496  0.5555326233112865  0.1118922431867375
  0.2592799202799085  0.6295815436297616  0.1120736242068006
  0.2222506864853742  0.6666302565446713  0.1123854986311414
  0.2592650560817020  0.7407068075624252  0.1125721424082329
  0.2222262021649115  0.7777604622234691  0.1126216941524660
  0.2592591221599321  0.8518463380769532  0.1126180763649671
  0.2222261380736867  0.8888927035526848  0.1126304338339637
  0.2592641460931517  0.9629820395201421  0.1127322642401367
  0.3333370015134278  0.0000225766775870  0.1127479464903729
  0.3703668018841526  0.0741090115886038  0.1128942459340152
  0.3333422591442030  0.1111630231941518  0.1130789849653695
  0.3703758216146014  0.1852338507258651  0.1132435789524848
  0.3333373183158983  0.2222548009875567  0.1134803435453264
  0.3703715505036413  0.2963086099668217  0.1137591834790825
  0.3333259030583733  0.3333347644493188  0.1138691690663478
  0.3703381241699830  0.4073962525385966  0.1141080774255840
  0.3333219116078112  0.4444485151645736  0.1135892097954425
  0.3703568906329693  0.5185142960762903  0.1134567382324221
  0.3333239684541525  0.5555417850129132  0.1127049421352311
  0.3703688822251650  0.6295850448449869  0.1126930001637447
  0.3333297884190571  0.6666070031503821  0.1123951347330632
  0.3703659203390046  0.7406855320408852  0.1126558594287275
  0.3333421381668771  0.7777468669477372  0.1126234731087905
  0.3703742750553332  0.8518334429199967  0.1126445274377943
  0.3333380516504363  0.8888855827365916  0.1126185553258026
  0.3703674672375143  0.9629655930693346  0.1126463981176826
  0.4444426780470820  0.0000041492181069  0.1126328699266068
  0.4814726810266450  0.0740886889472847  0.1126817568613987
  0.4444442818653656  0.1111484923694448  0.1128269122634578
  0.4814673993639289  0.1852249310920158  0.1128427718247522
  0.4444337546377781  0.2222644915971728  0.1130676844187164
  0.4814835311162327  0.2963277958932622  0.1131061506131914
  0.4444392769139114  0.3333310287339017  0.1136496709352457
  0.4814865344218759  0.4073900754345559  0.1140055358388921
  0.4444307451622365  0.4444284114531456  0.1144315543310270
  0.4814774126367851  0.5185207865953103  0.1144085434695015
  0.4444237027061462  0.5555553271978440  0.1139603819934010
  0.4814721406250158  0.6296123054234499  0.1136382343867979
  0.4444278353684794  0.6666144088671047  0.1131606613401743
  0.4814761054550658  0.7406857043073742  0.1131073805568974
  0.4444463453099630  0.7777285489604751  0.1128787002947078
  0.4814703366455930  0.8518089997689060  0.1128189804541222
  0.4444402651873745  0.8888670316389025  0.1126756543100456
  0.4814728629165188  0.9629523100518469  0.1126275256782776
  0.5555473384911309  0.9999911781609541  0.1126360574437868
  0.5925764872447701  0.0740697633938865  0.1126140128673185
  0.5555415687422212  0.1111229196252665  0.1126366998182533
  0.5925701134961159  0.1852092676993919  0.1125792937574559
  0.5555479535822982  0.2222701218809604  0.1125731828670880
  0.5925836672905120  0.2963425573409140  0.1122768451023646
  0.5555393384424718  0.3333572141434047  0.1126363649767157
  0.5925841901745414  0.4074008846951571  0.1127970588214069
  0.5555555671327213  0.4444309686986259  0.1135519930637656
  0.5925859394791573  0.5185004416983432  0.1137316593298294
  0.5555690569646714  0.5555493523541131  0.1141484654036446
  0.5925834345016767  0.6296145079407722  0.1138879964241042
  0.5555394392117776  0.6666373864002040  0.1137355686036869
  0.5925759212839594  0.7406917901804562  0.1134469105841944
  0.5555398988514213  0.7777148137333327  0.1132437589740363
  0.5925703786161449  0.8517915979954154  0.1130661279939247
  0.5555473664594430  0.8888461683690991  0.1128729537787905
  0.5925786213396762  0.9629349992316776  0.1127263224781032
  0.6666499956919978  0.9999734053676477  0.1127109175384433
  0.7036913924939157  0.0740639150351328  0.1126257993583764
  0.6666535291173687  0.1111095896115089  0.1126170913574853
  0.7036883907955129  0.1851955206584961  0.1126131174524332
  0.6666489609281712  0.2222491095223447  0.1125176822130669
  0.7036608649870359  0.2963255414064818  0.1122979108536768
  0.6666314610619395  0.3333667692145497  0.1119878544298700
  0.7036603253408842  0.4074120581331329  0.1120010726954064
  0.6666366857246047  0.4444302002113432  0.1124308469371442
  0.7036593955917780  0.5184843713201559  0.1127622979109759
  0.6666475324137267  0.5555316824802077  0.1132931622985751
  0.7036529852840303  0.6295875744312056  0.1133691641602255
  0.6666382899947294  0.6666356406054561  0.1135682698659579
  0.7036564601080428  0.7406944917635485  0.1133695964579431
  0.6666287736624597  0.7777206537671830  0.1133429162496640
  0.7036650364519375  0.8517846328383953  0.1131345535823272
  0.6666447099098818  0.8888338379077112  0.1130314786155466
  0.7036786638598258  0.9629156381870274  0.1128248557507945
  0.7777603979685423  0.9999733030453513  0.1127355471958040
  0.8148098701016124  0.0740613263125880  0.1126117709586154
  0.7777697785731235  0.1111064951587011  0.1126016172703928
  0.8148094209925958  0.1851834826855452  0.1126222222489659
  0.7777624319565319  0.2222252136070537  0.1126423997184531
  0.8147934019151180  0.2963065742788942  0.1126786390954990
  0.7777426033273613  0.3333438119055714  0.1125175236926594
  0.8147684747272805  0.4074184201024309  0.1124715032270132
  0.7777107708799562  0.4444335443492307  0.1122015506842615
  0.8147487023809319  0.5184837491518124  0.1124825085397205
  0.7777114844107018  0.5555148741698872  0.1126759308047767
  0.8147526174307913  0.6295852331856722  0.1128800133159089
  0.7777178806058131  0.6666248186697885  0.1131114492797352
  0.8147618741899052  0.7407030652015436  0.1130377819367467
  0.7777227940393061  0.7777353398610174  0.1131412440634065
  0.8147712468334731  0.8518037879622398  0.1129750660013684
  0.7777316670649057  0.8888389777380041  0.1129848679165235
  0.8147892543199120  0.9629247320429428  0.1127895584883234
  0.8888751459346551  0.9999874081073941  0.1126783862230312
  0.9259283841075998  0.0740679145315610  0.1126263057234809
  0.8888869203887069  0.1111064804366535  0.1125955012538427
  0.9259381960624751  0.1851914949149460  0.1126211468055942
  0.8888925720879399  0.2222247897451766  0.1126395792103168
  0.9259354608828261  0.2963038223554193  0.1126975558922965
  0.8888804176119365  0.3333361874633596  0.1127298914357411
  0.9259161435193448  0.4074068064963470  0.1127638490611105
  0.8888544129158333  0.4444336200540491  0.1127130532954155
  0.9259032326040497  0.5185113639919052  0.1127500146488032
  0.8888357956003716  0.5555268376919145  0.1126872685394602
  0.9258924407753852  0.6296082550227240  0.1127308800511742
  0.8888409568391040  0.6666394049824405  0.1127698985029753
  0.9258904790137734  0.7407158189625775  0.1127181330531926
  0.8888439418119063  0.7777485223988165  0.1128026603996588
  0.9259015230203076  0.8518328178756676  0.1127096684309876
  0.8888563146856043  0.8888628889920582  0.1127725228036525
  0.9259173179808684  0.9629493681910262  0.1126844433715419
  0.2671570362365898  0.1336209218335895  0.3755015515437421
  0.3362736833731503  0.1867925951486171  0.3683641419987964
  0.3491904082004780  0.2553393549587923  0.3628332415705557
  0.2938584204472505  0.2698844532709899  0.3637848366686711
  0.2244334882648573  0.2162599810596859  0.3705483575210451
  0.2118477022542891  0.1481881619111718  0.3766509608336506
  0.3249433060465492  0.3447130429474115  0.3579966690467629
  0.4131300741373494  0.3215748413287471  0.3569421498635990
  0.3173345462842789  0.4455607996113926  0.3512635300918774
  0.3949209287581255  0.5608145993420948  0.3527801747842148
  0.2775852953274480  0.4814332012086169  0.3452862789608915
  0.3260127391434438  0.5534004705070288  0.3466935973721164
  0.3043692516693355  0.6026263401352310  0.3419662838381115
  0.2328548229237555  0.5778613935444312  0.3351069207455097
  0.1844342376787438  0.5058767010765806  0.3332059667436340
  0.2061584714705944  0.4566408738749601  0.3384507980772682
  0.5339887455813823  0.3889012870993369  0.3512646892924991
  0.6115487183678354  0.5040852833506833  0.3562260997035978
  0.6248788334163891  0.3475891459784535  0.3386888616301533
  0.6965780326852880  0.3726054077351435  0.3346251508344906
  0.7450212182800442  0.4445004792871501  0.3389931736340088
  0.7230932950784563  0.4934156982922246  0.3471307256391754
  0.6514728121607050  0.4683927829027539  0.3504911911887021
  0.6030410428062538  0.3964863318395686  0.3466553498404181
  0.6038335685710123  0.6048602533848566  0.3632811226544277
  0.5157081616439427  0.6280497450207889  0.3603504499394745
  0.6349695366636041  0.6797636960484894  0.3672817822835128
  0.7044951755842703  0.7335120925070484  0.3716885905666487
  0.7172539874584700  0.8017834509077773  0.3734193612863592
  0.6619968601860791  0.8163909907625069  0.3706603449454562
  0.5927501153158587  0.7630571116091005  0.3665283324416819
  0.5796885296213787  0.6943442661530597  0.3649910569408519
  0.3971445457905887  0.3748697548469693  0.3553496962686609
  0.2881345717364070  0.3770602316287466  0.3543109952415762
  0.3883712638208507  0.4947441552164662  0.3544032958009709
  0.4759749457228892  0.3279046689767071  0.3530630289453214
  0.5404778012004883  0.4549007180782993  0.3553232509570989
  0.6406703964789173  0.5725062281502815  0.3610611864250330
  0.5316537355876605  0.5747129355771676  0.3597931949190922
  0.4529043452465586  0.6217669631062961  0.3561958833017229
  0.2552504891895566  0.0797706096188904  0.3808173174132747
  0.3791714336097769  0.1761474721627181  0.3677140193663959
  0.1823323990575076  0.2280776977335961  0.3716813983404847
  0.1585541762578799  0.1052519575854731  0.3828414039591834
  0.3422501857091476  0.6580633062219619  0.3433059507517342
  0.2141508548799109  0.6147766036228290  0.3306321351313670
  0.1291781080097891  0.4884217062879159  0.3270338472575318
  0.1692859406149907  0.4009496593798545  0.3368386593968040
  0.5870196518164903  0.2922339720366836  0.3349574300189531
  0.7154259093554884  0.3360020906387362  0.3272438747854522
  0.8004685728238030  0.4621803097831716  0.3353198845177516
  0.7599516643367465  0.5490680289341441  0.3502222275795646
  0.7465623595011195  0.7216684511050602  0.3737307166293817
  0.7706701718674296  0.8448785806860712  0.3769848503654671
  0.6740769114947298  0.8704381453380918  0.3718387962061698
  0.5498949310608765  0.7737316160048593  0.3644511102645396
  0.4644143853995928  0.4748093889176701  0.3555726176534080
 
  0.00000000E+00  0.00000000E+00  0.00000000E+00
  0.00000000E+00  0.00000000E+00  0.00000000E+00
  0.00000000E+00  0.00000000E+00  0.00000000E+00
  0.00000000E+00  0.00000000E+00  0.00000000E+00
  0.00000000E+00  0.00000000E+00  0.00000000E+00
  0.00000000E+00  0.00000000E+00  0.00000000E+00
  0.00000000E+00  0.00000000E+00  0.00000000E+00
  0.00000000E+00  0.00000000E+00  0.00000000E+00
  0.00000000E+00  0.00000000E+00  0.00000000E+00
  0.00000000E+00  0.00000000E+00  0.00000000E+00
  0.00000000E+00  0.00000000E+00  0.00000000E+00
  0.00000000E+00  0.00000000E+00  0.00000000E+00
  0.00000000E+00  0.00000000E+00  0.00000000E+00
  0.00000000E+00  0.00000000E+00  0.00000000E+00
  0.00000000E+00  0.00000000E+00  0.00000000E+00
  0.00000000E+00  0.00000000E+00  0.00000000E+00
  0.00000000E+00  0.00000000E+00  0.00000000E+00
  0.00000000E+00  0.00000000E+00  0.00000000E+00
  0.00000000E+00  0.00000000E+00  0.00000000E+00
  0.00000000E+00  0.00000000E+00  0.00000000E+00
  0.00000000E+00  0.00000000E+00  0.00000000E+00
  0.00000000E+00  0.00000000E+00  0.00000000E+00
  0.00000000E+00  0.00000000E+00  0.00000000E+00
  0.00000000E+00  0.00000000E+00  0.00000000E+00
  0.00000000E+00  0.00000000E+00  0.00000000E+00
  0.00000000E+00  0.00000000E+00  0.00000000E+00
  0.00000000E+00  0.00000000E+00  0.00000000E+00
  0.00000000E+00  0.00000000E+00  0.00000000E+00
  0.00000000E+00  0.00000000E+00  0.00000000E+00
  0.00000000E+00  0.00000000E+00  0.00000000E+00
  0.00000000E+00  0.00000000E+00  0.00000000E+00
  0.00000000E+00  0.00000000E+00  0.00000000E+00
  0.00000000E+00  0.00000000E+00  0.00000000E+00
  0.00000000E+00  0.00000000E+00  0.00000000E+00
  0.00000000E+00  0.00000000E+00  0.00000000E+00
  0.00000000E+00  0.00000000E+00  0.00000000E+00
  0.00000000E+00  0.00000000E+00  0.00000000E+00
  0.00000000E+00  0.00000000E+00  0.00000000E+00
  0.00000000E+00  0.00000000E+00  0.00000000E+00
  0.00000000E+00  0.00000000E+00  0.00000000E+00
  0.00000000E+00  0.00000000E+00  0.00000000E+00
  0.00000000E+00  0.00000000E+00  0.00000000E+00
  0.00000000E+00  0.00000000E+00  0.00000000E+00
  0.00000000E+00  0.00000000E+00  0.00000000E+00
  0.00000000E+00  0.00000000E+00  0.00000000E+00
  0.00000000E+00  0.00000000E+00  0.00000000E+00
  0.00000000E+00  0.00000000E+00  0.00000000E+00
  0.00000000E+00  0.00000000E+00  0.00000000E+00
  0.00000000E+00  0.00000000E+00  0.00000000E+00
  0.00000000E+00  0.00000000E+00  0.00000000E+00
  0.00000000E+00  0.00000000E+00  0.00000000E+00
  0.00000000E+00  0.00000000E+00  0.00000000E+00
  0.00000000E+00  0.00000000E+00  0.00000000E+00
  0.00000000E+00  0.00000000E+00  0.00000000E+00
  0.00000000E+00  0.00000000E+00  0.00000000E+00
  0.00000000E+00  0.00000000E+00  0.00000000E+00
  0.00000000E+00  0.00000000E+00  0.00000000E+00
  0.00000000E+00  0.00000000E+00  0.00000000E+00
  0.00000000E+00  0.00000000E+00  0.00000000E+00
  0.00000000E+00  0.00000000E+00  0.00000000E+00
  0.00000000E+00  0.00000000E+00  0.00000000E+00
  0.00000000E+00  0.00000000E+00  0.00000000E+00
  0.00000000E+00  0.00000000E+00  0.00000000E+00
  0.00000000E+00  0.00000000E+00  0.00000000E+00
  0.00000000E+00  0.00000000E+00  0.00000000E+00
  0.00000000E+00  0.00000000E+00  0.00000000E+00
  0.00000000E+00  0.00000000E+00  0.00000000E+00
  0.00000000E+00  0.00000000E+00  0.00000000E+00
  0.00000000E+00  0.00000000E+00  0.00000000E+00
  0.00000000E+00  0.00000000E+00  0.00000000E+00
  0.00000000E+00  0.00000000E+00  0.00000000E+00
  0.00000000E+00  0.00000000E+00  0.00000000E+00
  0.00000000E+00  0.00000000E+00  0.00000000E+00
  0.00000000E+00  0.00000000E+00  0.00000000E+00
  0.00000000E+00  0.00000000E+00  0.00000000E+00
  0.00000000E+00  0.00000000E+00  0.00000000E+00
  0.00000000E+00  0.00000000E+00  0.00000000E+00
  0.00000000E+00  0.00000000E+00  0.00000000E+00
  0.00000000E+00  0.00000000E+00  0.00000000E+00
  0.00000000E+00  0.00000000E+00  0.00000000E+00
  0.00000000E+00  0.00000000E+00  0.00000000E+00
  0.00000000E+00  0.00000000E+00  0.00000000E+00
  0.00000000E+00  0.00000000E+00  0.00000000E+00
  0.00000000E+00  0.00000000E+00  0.00000000E+00
  0.00000000E+00  0.00000000E+00  0.00000000E+00
  0.00000000E+00  0.00000000E+00  0.00000000E+00
  0.00000000E+00  0.00000000E+00  0.00000000E+00
  0.00000000E+00  0.00000000E+00  0.00000000E+00
  0.00000000E+00  0.00000000E+00  0.00000000E+00
  0.00000000E+00  0.00000000E+00  0.00000000E+00
  0.00000000E+00  0.00000000E+00  0.00000000E+00
  0.00000000E+00  0.00000000E+00  0.00000000E+00
  0.00000000E+00  0.00000000E+00  0.00000000E+00
  0.00000000E+00  0.00000000E+00  0.00000000E+00
  0.00000000E+00  0.00000000E+00  0.00000000E+00
  0.00000000E+00  0.00000000E+00  0.00000000E+00
  0.00000000E+00  0.00000000E+00  0.00000000E+00
  0.00000000E+00  0.00000000E+00  0.00000000E+00
  0.00000000E+00  0.00000000E+00  0.00000000E+00
  0.00000000E+00  0.00000000E+00  0.00000000E+00
  0.00000000E+00  0.00000000E+00  0.00000000E+00
  0.00000000E+00  0.00000000E+00  0.00000000E+00
  0.00000000E+00  0.00000000E+00  0.00000000E+00
  0.00000000E+00  0.00000000E+00  0.00000000E+00
  0.00000000E+00  0.00000000E+00  0.00000000E+00
  0.00000000E+00  0.00000000E+00  0.00000000E+00
  0.00000000E+00  0.00000000E+00  0.00000000E+00
  0.00000000E+00  0.00000000E+00  0.00000000E+00
  0.00000000E+00  0.00000000E+00  0.00000000E+00
  0.00000000E+00  0.00000000E+00  0.00000000E+00
  0.00000000E+00  0.00000000E+00  0.00000000E+00
  0.00000000E+00  0.00000000E+00  0.00000000E+00
  0.00000000E+00  0.00000000E+00  0.00000000E+00
  0.00000000E+00  0.00000000E+00  0.00000000E+00
  0.00000000E+00  0.00000000E+00  0.00000000E+00
  0.00000000E+00  0.00000000E+00  0.00000000E+00
  0.00000000E+00  0.00000000E+00  0.00000000E+00
  0.00000000E+00  0.00000000E+00  0.00000000E+00
  0.00000000E+00  0.00000000E+00  0.00000000E+00
  0.00000000E+00  0.00000000E+00  0.00000000E+00
  0.00000000E+00  0.00000000E+00  0.00000000E+00
  0.00000000E+00  0.00000000E+00  0.00000000E+00
  0.00000000E+00  0.00000000E+00  0.00000000E+00
  0.00000000E+00  0.00000000E+00  0.00000000E+00
  0.00000000E+00  0.00000000E+00  0.00000000E+00
  0.00000000E+00  0.00000000E+00  0.00000000E+00
  0.00000000E+00  0.00000000E+00  0.00000000E+00
  0.00000000E+00  0.00000000E+00  0.00000000E+00
  0.00000000E+00  0.00000000E+00  0.00000000E+00
  0.00000000E+00  0.00000000E+00  0.00000000E+00
  0.00000000E+00  0.00000000E+00  0.00000000E+00
  0.00000000E+00  0.00000000E+00  0.00000000E+00
  0.00000000E+00  0.00000000E+00  0.00000000E+00
  0.00000000E+00  0.00000000E+00  0.00000000E+00
  0.00000000E+00  0.00000000E+00  0.00000000E+00
  0.00000000E+00  0.00000000E+00  0.00000000E+00
  0.00000000E+00  0.00000000E+00  0.00000000E+00
  0.00000000E+00  0.00000000E+00  0.00000000E+00
  0.00000000E+00  0.00000000E+00  0.00000000E+00
  0.00000000E+00  0.00000000E+00  0.00000000E+00
  0.00000000E+00  0.00000000E+00  0.00000000E+00
  0.00000000E+00  0.00000000E+00  0.00000000E+00
  0.00000000E+00  0.00000000E+00  0.00000000E+00
  0.00000000E+00  0.00000000E+00  0.00000000E+00
  0.00000000E+00  0.00000000E+00  0.00000000E+00
  0.00000000E+00  0.00000000E+00  0.00000000E+00
  0.00000000E+00  0.00000000E+00  0.00000000E+00
  0.00000000E+00  0.00000000E+00  0.00000000E+00
  0.00000000E+00  0.00000000E+00  0.00000000E+00
  0.00000000E+00  0.00000000E+00  0.00000000E+00
  0.00000000E+00  0.00000000E+00  0.00000000E+00
  0.00000000E+00  0.00000000E+00  0.00000000E+00
  0.00000000E+00  0.00000000E+00  0.00000000E+00
  0.00000000E+00  0.00000000E+00  0.00000000E+00
  0.00000000E+00  0.00000000E+00  0.00000000E+00
  0.00000000E+00  0.00000000E+00  0.00000000E+00
  0.00000000E+00  0.00000000E+00  0.00000000E+00
  0.00000000E+00  0.00000000E+00  0.00000000E+00
  0.00000000E+00  0.00000000E+00  0.00000000E+00
  0.00000000E+00  0.00000000E+00  0.00000000E+00
  0.00000000E+00  0.00000000E+00  0.00000000E+00
  0.00000000E+00  0.00000000E+00  0.00000000E+00
  0.00000000E+00  0.00000000E+00  0.00000000E+00
  0.00000000E+00  0.00000000E+00  0.00000000E+00
  0.00000000E+00  0.00000000E+00  0.00000000E+00
  0.00000000E+00  0.00000000E+00  0.00000000E+00
  0.00000000E+00  0.00000000E+00  0.00000000E+00
  0.00000000E+00  0.00000000E+00  0.00000000E+00
  0.00000000E+00  0.00000000E+00  0.00000000E+00
  0.00000000E+00  0.00000000E+00  0.00000000E+00
  0.00000000E+00  0.00000000E+00  0.00000000E+00
  0.00000000E+00  0.00000000E+00  0.00000000E+00
  0.00000000E+00  0.00000000E+00  0.00000000E+00
  0.00000000E+00  0.00000000E+00  0.00000000E+00
  0.00000000E+00  0.00000000E+00  0.00000000E+00
  0.00000000E+00  0.00000000E+00  0.00000000E+00
  0.00000000E+00  0.00000000E+00  0.00000000E+00
  0.00000000E+00  0.00000000E+00  0.00000000E+00
  0.00000000E+00  0.00000000E+00  0.00000000E+00
  0.00000000E+00  0.00000000E+00  0.00000000E+00
  0.00000000E+00  0.00000000E+00  0.00000000E+00
  0.00000000E+00  0.00000000E+00  0.00000000E+00
  0.00000000E+00  0.00000000E+00  0.00000000E+00
  0.00000000E+00  0.00000000E+00  0.00000000E+00
  0.00000000E+00  0.00000000E+00  0.00000000E+00
  0.00000000E+00  0.00000000E+00  0.00000000E+00
  0.00000000E+00  0.00000000E+00  0.00000000E+00
  0.00000000E+00  0.00000000E+00  0.00000000E+00
  0.00000000E+00  0.00000000E+00  0.00000000E+00
  0.00000000E+00  0.00000000E+00  0.00000000E+00
  0.00000000E+00  0.00000000E+00  0.00000000E+00
  0.00000000E+00  0.00000000E+00  0.00000000E+00
  0.00000000E+00  0.00000000E+00  0.00000000E+00
  0.00000000E+00  0.00000000E+00  0.00000000E+00
  0.00000000E+00  0.00000000E+00  0.00000000E+00
  0.00000000E+00  0.00000000E+00  0.00000000E+00
  0.00000000E+00  0.00000000E+00  0.00000000E+00
  0.00000000E+00  0.00000000E+00  0.00000000E+00
  0.00000000E+00  0.00000000E+00  0.00000000E+00
  0.00000000E+00  0.00000000E+00  0.00000000E+00
  0.00000000E+00  0.00000000E+00  0.00000000E+00
  0.00000000E+00  0.00000000E+00  0.00000000E+00
  0.00000000E+00  0.00000000E+00  0.00000000E+00
  0.00000000E+00  0.00000000E+00  0.00000000E+00
  0.00000000E+00  0.00000000E+00  0.00000000E+00
  0.00000000E+00  0.00000000E+00  0.00000000E+00
  0.00000000E+00  0.00000000E+00  0.00000000E+00
  0.00000000E+00  0.00000000E+00  0.00000000E+00
  0.00000000E+00  0.00000000E+00  0.00000000E+00
  0.00000000E+00  0.00000000E+00  0.00000000E+00
  0.00000000E+00  0.00000000E+00  0.00000000E+00
  0.00000000E+00  0.00000000E+00  0.00000000E+00
  0.00000000E+00  0.00000000E+00  0.00000000E+00
  0.00000000E+00  0.00000000E+00  0.00000000E+00
  0.00000000E+00  0.00000000E+00  0.00000000E+00
  0.00000000E+00  0.00000000E+00  0.00000000E+00
  0.00000000E+00  0.00000000E+00  0.00000000E+00
  0.00000000E+00  0.00000000E+00  0.00000000E+00
  0.00000000E+00  0.00000000E+00  0.00000000E+00
