C194N9H18Fe1                            
   1.00000000000000     
    22.2366884984262185    0.0000000000000000    0.0000000000000000
   -11.1201591799460218   19.2564891708925785    0.0000000000000000
     0.0000000000000010    0.0000000000000017   15.9795831132498591
   C    N    H    Ni
   194     9    18     1
Direct
  0.9999989511452725  0.0000039255590352  0.1127393115330833
  0.0370606629450094  0.0740894849331468  0.1128574118809738
  0.0000123065615085  0.1111223745503267  0.1127698424474346
  0.0370696661630845  0.1852022832485432  0.1128601370465603
  0.0000209827055357  0.2222354350156976  0.1127425479749107
  0.0370754446790471  0.2963160103570246  0.1127415972367345
  0.0000201596900880  0.3333430676921765  0.1127061426526126
  0.0370792263076893  0.4074240034033494  0.1126275202568294
  0.0000074053732746  0.4444425701044068  0.1127495592771695
  0.0370549099617250  0.5185159464736060  0.1127224700207847
  0.9999923797901786  0.5555450586451727  0.1128050147191928
  0.0370320486565490  0.6296185619857795  0.1127510958206841
  0.9999765489163082  0.6666493410742618  0.1127280150954562
  0.0370221061463383  0.7407278823492405  0.1126467899283554
  0.9999743806535548  0.7777642883890934  0.1126428908139800
  0.0370259658348360  0.8518445981821401  0.1126233376306587
  0.9999841574815278  0.8888832546851049  0.1126620268707086
  0.0370415985603927  0.9629682127180885  0.1127366003593053
  0.1111255467069725  0.0000296078847839  0.1128909543889662
  0.1481829339066891  0.0741124933134429  0.1131450238297020
  0.1111430301357430  0.1111465385691304  0.1131249265751038
  0.1481962123740885  0.1852215066944112  0.1133210071426234
  0.1111541427603129  0.2222536155302564  0.1131383002947288
  0.1482038278271673  0.2963311802860247  0.1131318640664460
  0.1111625095015967  0.3333707242890966  0.1127906308923272
  0.1482081148348584  0.4074385433423799  0.1124636857238599
  0.1111652775064940  0.4444628512586704  0.1123319160798957
  0.1482069767156133  0.5185202291158220  0.1121171978298108
  0.1111439757345352  0.5555353697268473  0.1124815391278062
  0.1481703811229806  0.6296112305082531  0.1125825460072463
  0.1111162668951167  0.6666505586610967  0.1127015114122756
  0.1481487658181777  0.7407283872666071  0.1126521538469376
  0.1111024489091150  0.7777691512373082  0.1126212519153995
  0.1481447017518107  0.8518493387017472  0.1126252951222355
  0.1111077693193110  0.8888950005619165  0.1126547548587880
  0.1481565458634932  0.9629804260844423  0.1128246449622097
  0.2222346562208486  0.0000380360814844  0.1129388684152133
  0.2592724442130816  0.0741218202769005  0.1132014358150073
  0.2222507872817161  0.1111661659960888  0.1133500421022688
  0.2592869639019284  0.1852296499465496  0.1136294046278365
  0.2222605818671539  0.2222652543219681  0.1136238807500618
  0.2592828771453881  0.2963243785583813  0.1138007295134926
  0.2222644399194635  0.3333701105860740  0.1134368086930806
  0.2592794847391602  0.4074283930229186  0.1132628762530103
  0.2222643032740308  0.4444693626284675  0.1125679221952538
  0.2592844848939819  0.5185152599398037  0.1123342468895103
  0.2222584264859719  0.5555371241033100  0.1119619582405349
  0.2592790657375730  0.6295812535770580  0.1121326522223782
  0.2222493328068822  0.6666278639640808  0.1124245538271964
  0.2592670283643912  0.7407111059979812  0.1125998313901420
  0.2222265085297721  0.7777617544688766  0.1126384362887833
  0.2592610597412985  0.8518440050062708  0.1126359901087213
  0.2222225440560521  0.8888941335266409  0.1126596358128111
  0.2592609321702994  0.9629785586170456  0.1127880464247752
  0.3333363208486020  0.0000216796476451  0.1128020650481716
  0.3703672632276067  0.0741082560259230  0.1129880999610293
  0.3333400019858885  0.1111643074577415  0.1132371635783116
  0.3703722633766162  0.1852337705081553  0.1134660642895540
  0.3333379369460303  0.2222594536498121  0.1137541118670100
  0.3703771970252845  0.2963208893328968  0.1140671364046639
  0.3333430715483203  0.3333551745360381  0.1141690381516725
  0.3703704012882696  0.4074157833667016  0.1143450028758579
  0.3333369750173318  0.4444541873428989  0.1138547152760694
  0.3703682545221980  0.5185130112024936  0.1137141326525182
  0.3333295189558285  0.5555363477557336  0.1129153148377497
  0.3703740270781424  0.6295864393427237  0.1128829336517967
  0.3333341467937458  0.6666088996779465  0.1125052459373350
  0.3703680275165269  0.7406846883228084  0.1127402471119154
  0.3333419812345966  0.7777484150951182  0.1126610819619813
  0.3703704027225996  0.8518304378611319  0.1126696778192624
  0.3333350124872467  0.8888831402988586  0.1126369351215857
  0.3703678082939632  0.9629657825366138  0.1126738688682138
  0.4444402254051028  0.0000044400782855  0.1126569788247878
  0.4814701059915478  0.0740862391776460  0.1127162806914228
  0.4444407830398376  0.1111456012034751  0.1129049996173563
  0.4814688921914296  0.1852288215602655  0.1129668957340186
  0.4444361181265961  0.2222712663693471  0.1132773174780439
  0.4814828924032142  0.2963335467110610  0.1133619907315975
  0.4444410768173697  0.3333525071409085  0.1139354038034384
  0.4814733850911637  0.4074056974348466  0.1142376228655948
  0.4444354690278161  0.4444418421150687  0.1145808571627285
  0.4814703478372593  0.5185075534290675  0.1145761356875283
  0.4444342935098931  0.5555408235902917  0.1141990225319915
  0.4814723078756629  0.6295975278232930  0.1139237431320126
  0.4444280781016232  0.6666122142774142  0.1134019871096044
  0.4814743189973854  0.7406775376188719  0.1133018231757177
  0.4444432541633532  0.7777251015513116  0.1129946825445103
  0.4814716644170218  0.8518092816942229  0.1128934038304905
  0.4444426907926129  0.8888669657361561  0.1127115911405951
  0.4814737237790609  0.9629496375813105  0.1126514800646774
  0.5555446807456335  0.9999875307079051  0.1126615343574002
  0.5925773863686814  0.0740698698778104  0.1126301499983740
  0.5555425933679885  0.1111227559532040  0.1126604488626768
  0.5925712871691573  0.1852064378958573  0.1126193372255813
  0.5555450639320867  0.2222712461491057  0.1126639325202774
  0.5925791234466828  0.2963409001345170  0.1123940866823432
  0.5555337146198838  0.3333574342934469  0.1128428279691605
  0.5925757724311467  0.4074077716409761  0.1130333165710340
  0.5555396565750286  0.4444346732418083  0.1138414194127719
  0.5925708438243689  0.5184967920468537  0.1140384109684405
  0.5555383580575395  0.5555356353157137  0.1144142821353356
  0.5925673892286198  0.6295957368796152  0.1141978439610085
  0.5555321431490299  0.6666277055181808  0.1140381421264678
  0.5925735857249705  0.7406876689145463  0.1137033579294524
  0.5555411799679177  0.7777141727829644  0.1134466502831941
  0.5925725270952995  0.8517879511350444  0.1132107883041158
  0.5555453041196401  0.8888471419527093  0.1129595765306917
  0.5925763783886850  0.9629314971689382  0.1127753967586500
  0.6666519084026774  0.9999746376649625  0.1127593516337910
  0.7036910100110845  0.0740600461724341  0.1126503951541906
  0.6666524462885874  0.1111096936630673  0.1126344188952331
  0.7036858655372029  0.1851910643092580  0.1126353476909188
  0.6666456848257241  0.2222442497664261  0.1125517401656779
  0.7036613240479141  0.2963263207211213  0.1123473014725960
  0.6666311520204786  0.3333671008309480  0.1120548620011093
  0.7036564645192698  0.4074106356934166  0.1120893320571028
  0.6666288251905428  0.4444325386436674  0.1125965357613836
  0.7036487439281913  0.5184808856079783  0.1129580039555336
  0.6666295243179761  0.5555241944572487  0.1135687038507243
  0.7036476313003348  0.6295838102912512  0.1136294746411650
  0.6666271563881807  0.6666275747386408  0.1138624568248474
  0.7036530809147621  0.7406877161470788  0.1136047991417399
  0.6666246167913883  0.7777181572545615  0.1135683199684721
  0.7036615989484005  0.8517810268245043  0.1132960442239863
  0.6666415272000634  0.8888302245216693  0.1131627820209218
  0.7036795039648709  0.9629165029228446  0.1129023698608833
  0.7777590647022308  0.9999739981257605  0.1127935140771115
  0.8148064406061408  0.0740580319381152  0.1126397441542437
  0.7777685625711044  0.1111039395004099  0.1126219935863020
  0.8148099677833329  0.1851842682188618  0.1126386411017037
  0.7777639985159084  0.2222241756346861  0.1126654772844375
  0.8147956961931300  0.2963042437186800  0.1127153247257056
  0.7777397199352549  0.3333434271987770  0.1125750994600381
  0.8147673474125483  0.4074166195757272  0.1125407716119398
  0.7777045658449282  0.4444305830801838  0.1122796307993283
  0.8147480883255085  0.5184866087589910  0.1125837793441491
  0.7777072999403245  0.5555134019316199  0.1128219751229267
  0.8147534256137661  0.6295857981486108  0.1130113507371604
  0.7777111302198279  0.6666231534255402  0.1132887107802887
  0.8147584031788995  0.7406988141253592  0.1131780277935164
  0.7777141415917370  0.7777284539654659  0.1133075903601863
  0.8147692642529023  0.8518033011375792  0.1130981985101940
  0.7777306191545179  0.8888370021697796  0.1131088838602778
  0.8147890997784444  0.9629231741347652  0.1128634254457737
  0.8888718059992726  0.9999837545849317  0.1127262118024603
  0.9259281749700961  0.0740685446268117  0.1126586598613102
  0.8888877547472305  0.1111077856849434  0.1126181102942851
  0.9259388001671098  0.1851891440304598  0.1126420941185984
  0.8888906081094206  0.2222250091144815  0.1126572724946016
  0.9259340480659901  0.2963022820688650  0.1127232113606667
  0.8888784730192114  0.3333335453539377  0.1127640499151212
  0.9259179028229241  0.4074077211475924  0.1128089325803003
  0.8888546955533698  0.4444352657941053  0.1127709814449176
  0.9259047399296279  0.5185106673640263  0.1128051340472140
  0.8888331824830402  0.5555286472476482  0.1127593214641891
  0.9258906517605752  0.6296074267976479  0.1127863569213545
  0.8888366203413867  0.6666367545557819  0.1128441243086584
  0.9258908174464366  0.7407168062438814  0.1127728829751433
  0.8888418181674780  0.7777483301020638  0.1128806940814542
  0.9259012604436947  0.8518302290303623  0.1127663138821049
  0.8888524522696173  0.8888620258130331  0.1128452276461260
  0.9259136549875819  0.9629467822319882  0.1127341007259446
  0.2674604188927532  0.1341674187431323  0.3751595242960590
  0.3367560190215926  0.1875456459777141  0.3679296357476076
  0.3494240822681363  0.2559171248909280  0.3620877672640930
  0.2943668155900596  0.2703978524808335  0.3629962236006108
  0.2249796557593982  0.2169987291984512  0.3700310108924825
  0.2122902222074003  0.1487073182052399  0.3762893412523240
  0.3261081296059274  0.3457943392341321  0.3565628539720223
  0.4135536082532454  0.3228533923816670  0.3556966816582019
  0.3184298288418219  0.4458485405937012  0.3495584005333967
  0.3953619311029044  0.5599308300901527  0.3511756715461303
  0.2780914090167457  0.4812877706133492  0.3447689122740485
  0.3265453415074973  0.5531823768322113  0.3461173796707797
  0.3049061034446154  0.6025374817286675  0.3417391041727527
  0.2333854577870440  0.5777825762140409  0.3350945527132652
  0.1848612676189418  0.5057223245246334  0.3332698099196350
  0.2065247173554496  0.4564463685758824  0.3383809740068600
  0.5335082691325184  0.3895880802138123  0.3505011492189993
  0.6103186068695905  0.5037524361266961  0.3554230533795391
  0.6243212015324957  0.3476392443148058  0.3384471577963453
  0.6959983968872692  0.3726774989203818  0.3345778193684623
  0.7444874414107190  0.4446916223683246  0.3388623539051565
  0.7225706241334464  0.4936112599138198  0.3467140973623160
  0.6507939377157044  0.4685218334442283  0.3498536742347866
  0.6024256599642399  0.3966522023757761  0.3460832550754063
  0.6025332222704023  0.6036818195298892  0.3619256218857174
  0.5152369648236501  0.6265264371205319  0.3590533097481412
  0.6344299851070119  0.6792478453164179  0.3666315189310012
  0.7039016482939005  0.7327366065247602  0.3712572099250337
  0.7167706352089667  0.8012629196924053  0.3731473723853966
  0.6616599376620513  0.8158019289587486  0.3704551677539953
  0.5922041072221518  0.7622073789082506  0.3661660854396160
  0.5794205436085420  0.6937012074397302  0.3643654552365234
  0.3980263536474027  0.3761729478550748  0.3532275741189181
  0.2886113933180496  0.3771526149833591  0.3536041546021451
  0.3888809326016798  0.4944813504441328  0.3511488262787452
  0.4757198091299983  0.3281560212934949  0.3524589697419032
  0.5397785072639962  0.4550399458737076  0.3544628846126514
  0.6401073688368939  0.5723915664678358  0.3605073589269452
  0.5308218281745880  0.5733639817198934  0.3572734552999393
  0.4531196418065093  0.6212888250463635  0.3555661309091818
  0.4557128243293320  0.4703218864810879  0.4958858189718356
  0.2555805760808383  0.0802891884687469  0.3804046200090099
  0.3795486938167727  0.1767287354075151  0.3673758761587820
  0.1827531144226668  0.2286470826782576  0.3712008328419856
  0.1589449938587038  0.1057742594883280  0.3824586948235691
  0.3426443073330816  0.6580335657218868  0.3429791091069845
  0.2145946172081779  0.6146650740418096  0.3305537471908337
  0.1295914319556672  0.4883791489745235  0.3270890386607235
  0.1694692253546535  0.4007824147501253  0.3367401949699129
  0.5866377410926233  0.2922088270438081  0.3348705694943632
  0.7149935110393173  0.3361368543002499  0.3273842004146985
  0.7999611311380974  0.4622833845571179  0.3353332568455230
  0.7596202884838803  0.5492335220519635  0.3498594585242998
  0.7461083337969825  0.7210815836544526  0.3733220712602048
  0.7702429811980593  0.8443589400245060  0.3767177385230340
  0.6736776723768330  0.8698623756466120  0.3717434112121865
  0.5494642073119635  0.7730668285991058  0.3641899804544835
  0.4864231269473578  0.4498562248715530  0.5145654330405094
  0.4060704141459723  0.4288496687317860  0.5054129588197682
  0.4641549444573627  0.4745491988751525  0.3596980416703985
 
  0.00000000E+00  0.00000000E+00  0.00000000E+00
  0.00000000E+00  0.00000000E+00  0.00000000E+00
  0.00000000E+00  0.00000000E+00  0.00000000E+00
  0.00000000E+00  0.00000000E+00  0.00000000E+00
  0.00000000E+00  0.00000000E+00  0.00000000E+00
  0.00000000E+00  0.00000000E+00  0.00000000E+00
  0.00000000E+00  0.00000000E+00  0.00000000E+00
  0.00000000E+00  0.00000000E+00  0.00000000E+00
  0.00000000E+00  0.00000000E+00  0.00000000E+00
  0.00000000E+00  0.00000000E+00  0.00000000E+00
  0.00000000E+00  0.00000000E+00  0.00000000E+00
  0.00000000E+00  0.00000000E+00  0.00000000E+00
  0.00000000E+00  0.00000000E+00  0.00000000E+00
  0.00000000E+00  0.00000000E+00  0.00000000E+00
  0.00000000E+00  0.00000000E+00  0.00000000E+00
  0.00000000E+00  0.00000000E+00  0.00000000E+00
  0.00000000E+00  0.00000000E+00  0.00000000E+00
  0.00000000E+00  0.00000000E+00  0.00000000E+00
  0.00000000E+00  0.00000000E+00  0.00000000E+00
  0.00000000E+00  0.00000000E+00  0.00000000E+00
  0.00000000E+00  0.00000000E+00  0.00000000E+00
  0.00000000E+00  0.00000000E+00  0.00000000E+00
  0.00000000E+00  0.00000000E+00  0.00000000E+00
  0.00000000E+00  0.00000000E+00  0.00000000E+00
  0.00000000E+00  0.00000000E+00  0.00000000E+00
  0.00000000E+00  0.00000000E+00  0.00000000E+00
  0.00000000E+00  0.00000000E+00  0.00000000E+00
  0.00000000E+00  0.00000000E+00  0.00000000E+00
  0.00000000E+00  0.00000000E+00  0.00000000E+00
  0.00000000E+00  0.00000000E+00  0.00000000E+00
  0.00000000E+00  0.00000000E+00  0.00000000E+00
  0.00000000E+00  0.00000000E+00  0.00000000E+00
  0.00000000E+00  0.00000000E+00  0.00000000E+00
  0.00000000E+00  0.00000000E+00  0.00000000E+00
  0.00000000E+00  0.00000000E+00  0.00000000E+00
  0.00000000E+00  0.00000000E+00  0.00000000E+00
  0.00000000E+00  0.00000000E+00  0.00000000E+00
  0.00000000E+00  0.00000000E+00  0.00000000E+00
  0.00000000E+00  0.00000000E+00  0.00000000E+00
  0.00000000E+00  0.00000000E+00  0.00000000E+00
  0.00000000E+00  0.00000000E+00  0.00000000E+00
  0.00000000E+00  0.00000000E+00  0.00000000E+00
  0.00000000E+00  0.00000000E+00  0.00000000E+00
  0.00000000E+00  0.00000000E+00  0.00000000E+00
  0.00000000E+00  0.00000000E+00  0.00000000E+00
  0.00000000E+00  0.00000000E+00  0.00000000E+00
  0.00000000E+00  0.00000000E+00  0.00000000E+00
  0.00000000E+00  0.00000000E+00  0.00000000E+00
  0.00000000E+00  0.00000000E+00  0.00000000E+00
  0.00000000E+00  0.00000000E+00  0.00000000E+00
  0.00000000E+00  0.00000000E+00  0.00000000E+00
  0.00000000E+00  0.00000000E+00  0.00000000E+00
  0.00000000E+00  0.00000000E+00  0.00000000E+00
  0.00000000E+00  0.00000000E+00  0.00000000E+00
  0.00000000E+00  0.00000000E+00  0.00000000E+00
  0.00000000E+00  0.00000000E+00  0.00000000E+00
  0.00000000E+00  0.00000000E+00  0.00000000E+00
  0.00000000E+00  0.00000000E+00  0.00000000E+00
  0.00000000E+00  0.00000000E+00  0.00000000E+00
  0.00000000E+00  0.00000000E+00  0.00000000E+00
  0.00000000E+00  0.00000000E+00  0.00000000E+00
  0.00000000E+00  0.00000000E+00  0.00000000E+00
  0.00000000E+00  0.00000000E+00  0.00000000E+00
  0.00000000E+00  0.00000000E+00  0.00000000E+00
  0.00000000E+00  0.00000000E+00  0.00000000E+00
  0.00000000E+00  0.00000000E+00  0.00000000E+00
  0.00000000E+00  0.00000000E+00  0.00000000E+00
  0.00000000E+00  0.00000000E+00  0.00000000E+00
  0.00000000E+00  0.00000000E+00  0.00000000E+00
  0.00000000E+00  0.00000000E+00  0.00000000E+00
  0.00000000E+00  0.00000000E+00  0.00000000E+00
  0.00000000E+00  0.00000000E+00  0.00000000E+00
  0.00000000E+00  0.00000000E+00  0.00000000E+00
  0.00000000E+00  0.00000000E+00  0.00000000E+00
  0.00000000E+00  0.00000000E+00  0.00000000E+00
  0.00000000E+00  0.00000000E+00  0.00000000E+00
  0.00000000E+00  0.00000000E+00  0.00000000E+00
  0.00000000E+00  0.00000000E+00  0.00000000E+00
  0.00000000E+00  0.00000000E+00  0.00000000E+00
  0.00000000E+00  0.00000000E+00  0.00000000E+00
  0.00000000E+00  0.00000000E+00  0.00000000E+00
  0.00000000E+00  0.00000000E+00  0.00000000E+00
  0.00000000E+00  0.00000000E+00  0.00000000E+00
  0.00000000E+00  0.00000000E+00  0.00000000E+00
  0.00000000E+00  0.00000000E+00  0.00000000E+00
  0.00000000E+00  0.00000000E+00  0.00000000E+00
  0.00000000E+00  0.00000000E+00  0.00000000E+00
  0.00000000E+00  0.00000000E+00  0.00000000E+00
  0.00000000E+00  0.00000000E+00  0.00000000E+00
  0.00000000E+00  0.00000000E+00  0.00000000E+00
  0.00000000E+00  0.00000000E+00  0.00000000E+00
  0.00000000E+00  0.00000000E+00  0.00000000E+00
  0.00000000E+00  0.00000000E+00  0.00000000E+00
  0.00000000E+00  0.00000000E+00  0.00000000E+00
  0.00000000E+00  0.00000000E+00  0.00000000E+00
  0.00000000E+00  0.00000000E+00  0.00000000E+00
  0.00000000E+00  0.00000000E+00  0.00000000E+00
  0.00000000E+00  0.00000000E+00  0.00000000E+00
  0.00000000E+00  0.00000000E+00  0.00000000E+00
  0.00000000E+00  0.00000000E+00  0.00000000E+00
  0.00000000E+00  0.00000000E+00  0.00000000E+00
  0.00000000E+00  0.00000000E+00  0.00000000E+00
  0.00000000E+00  0.00000000E+00  0.00000000E+00
  0.00000000E+00  0.00000000E+00  0.00000000E+00
  0.00000000E+00  0.00000000E+00  0.00000000E+00
  0.00000000E+00  0.00000000E+00  0.00000000E+00
  0.00000000E+00  0.00000000E+00  0.00000000E+00
  0.00000000E+00  0.00000000E+00  0.00000000E+00
  0.00000000E+00  0.00000000E+00  0.00000000E+00
  0.00000000E+00  0.00000000E+00  0.00000000E+00
  0.00000000E+00  0.00000000E+00  0.00000000E+00
  0.00000000E+00  0.00000000E+00  0.00000000E+00
  0.00000000E+00  0.00000000E+00  0.00000000E+00
  0.00000000E+00  0.00000000E+00  0.00000000E+00
  0.00000000E+00  0.00000000E+00  0.00000000E+00
  0.00000000E+00  0.00000000E+00  0.00000000E+00
  0.00000000E+00  0.00000000E+00  0.00000000E+00
  0.00000000E+00  0.00000000E+00  0.00000000E+00
  0.00000000E+00  0.00000000E+00  0.00000000E+00
  0.00000000E+00  0.00000000E+00  0.00000000E+00
  0.00000000E+00  0.00000000E+00  0.00000000E+00
  0.00000000E+00  0.00000000E+00  0.00000000E+00
  0.00000000E+00  0.00000000E+00  0.00000000E+00
  0.00000000E+00  0.00000000E+00  0.00000000E+00
  0.00000000E+00  0.00000000E+00  0.00000000E+00
  0.00000000E+00  0.00000000E+00  0.00000000E+00
  0.00000000E+00  0.00000000E+00  0.00000000E+00
  0.00000000E+00  0.00000000E+00  0.00000000E+00
  0.00000000E+00  0.00000000E+00  0.00000000E+00
  0.00000000E+00  0.00000000E+00  0.00000000E+00
  0.00000000E+00  0.00000000E+00  0.00000000E+00
  0.00000000E+00  0.00000000E+00  0.00000000E+00
  0.00000000E+00  0.00000000E+00  0.00000000E+00
  0.00000000E+00  0.00000000E+00  0.00000000E+00
  0.00000000E+00  0.00000000E+00  0.00000000E+00
  0.00000000E+00  0.00000000E+00  0.00000000E+00
  0.00000000E+00  0.00000000E+00  0.00000000E+00
  0.00000000E+00  0.00000000E+00  0.00000000E+00
  0.00000000E+00  0.00000000E+00  0.00000000E+00
  0.00000000E+00  0.00000000E+00  0.00000000E+00
  0.00000000E+00  0.00000000E+00  0.00000000E+00
  0.00000000E+00  0.00000000E+00  0.00000000E+00
  0.00000000E+00  0.00000000E+00  0.00000000E+00
  0.00000000E+00  0.00000000E+00  0.00000000E+00
  0.00000000E+00  0.00000000E+00  0.00000000E+00
  0.00000000E+00  0.00000000E+00  0.00000000E+00
  0.00000000E+00  0.00000000E+00  0.00000000E+00
  0.00000000E+00  0.00000000E+00  0.00000000E+00
  0.00000000E+00  0.00000000E+00  0.00000000E+00
  0.00000000E+00  0.00000000E+00  0.00000000E+00
  0.00000000E+00  0.00000000E+00  0.00000000E+00
  0.00000000E+00  0.00000000E+00  0.00000000E+00
  0.00000000E+00  0.00000000E+00  0.00000000E+00
  0.00000000E+00  0.00000000E+00  0.00000000E+00
  0.00000000E+00  0.00000000E+00  0.00000000E+00
  0.00000000E+00  0.00000000E+00  0.00000000E+00
  0.00000000E+00  0.00000000E+00  0.00000000E+00
  0.00000000E+00  0.00000000E+00  0.00000000E+00
  0.00000000E+00  0.00000000E+00  0.00000000E+00
  0.00000000E+00  0.00000000E+00  0.00000000E+00
  0.00000000E+00  0.00000000E+00  0.00000000E+00
  0.00000000E+00  0.00000000E+00  0.00000000E+00
  0.00000000E+00  0.00000000E+00  0.00000000E+00
  0.00000000E+00  0.00000000E+00  0.00000000E+00
  0.00000000E+00  0.00000000E+00  0.00000000E+00
  0.00000000E+00  0.00000000E+00  0.00000000E+00
  0.00000000E+00  0.00000000E+00  0.00000000E+00
  0.00000000E+00  0.00000000E+00  0.00000000E+00
  0.00000000E+00  0.00000000E+00  0.00000000E+00
  0.00000000E+00  0.00000000E+00  0.00000000E+00
  0.00000000E+00  0.00000000E+00  0.00000000E+00
  0.00000000E+00  0.00000000E+00  0.00000000E+00
  0.00000000E+00  0.00000000E+00  0.00000000E+00
  0.00000000E+00  0.00000000E+00  0.00000000E+00
  0.00000000E+00  0.00000000E+00  0.00000000E+00
  0.00000000E+00  0.00000000E+00  0.00000000E+00
  0.00000000E+00  0.00000000E+00  0.00000000E+00
  0.00000000E+00  0.00000000E+00  0.00000000E+00
  0.00000000E+00  0.00000000E+00  0.00000000E+00
  0.00000000E+00  0.00000000E+00  0.00000000E+00
  0.00000000E+00  0.00000000E+00  0.00000000E+00
  0.00000000E+00  0.00000000E+00  0.00000000E+00
  0.00000000E+00  0.00000000E+00  0.00000000E+00
  0.00000000E+00  0.00000000E+00  0.00000000E+00
  0.00000000E+00  0.00000000E+00  0.00000000E+00
  0.00000000E+00  0.00000000E+00  0.00000000E+00
  0.00000000E+00  0.00000000E+00  0.00000000E+00
  0.00000000E+00  0.00000000E+00  0.00000000E+00
  0.00000000E+00  0.00000000E+00  0.00000000E+00
  0.00000000E+00  0.00000000E+00  0.00000000E+00
  0.00000000E+00  0.00000000E+00  0.00000000E+00
  0.00000000E+00  0.00000000E+00  0.00000000E+00
  0.00000000E+00  0.00000000E+00  0.00000000E+00
  0.00000000E+00  0.00000000E+00  0.00000000E+00
  0.00000000E+00  0.00000000E+00  0.00000000E+00
  0.00000000E+00  0.00000000E+00  0.00000000E+00
  0.00000000E+00  0.00000000E+00  0.00000000E+00
  0.00000000E+00  0.00000000E+00  0.00000000E+00
  0.00000000E+00  0.00000000E+00  0.00000000E+00
  0.00000000E+00  0.00000000E+00  0.00000000E+00
  0.00000000E+00  0.00000000E+00  0.00000000E+00
  0.00000000E+00  0.00000000E+00  0.00000000E+00
  0.00000000E+00  0.00000000E+00  0.00000000E+00
  0.00000000E+00  0.00000000E+00  0.00000000E+00
  0.00000000E+00  0.00000000E+00  0.00000000E+00
  0.00000000E+00  0.00000000E+00  0.00000000E+00
  0.00000000E+00  0.00000000E+00  0.00000000E+00
  0.00000000E+00  0.00000000E+00  0.00000000E+00
  0.00000000E+00  0.00000000E+00  0.00000000E+00
  0.00000000E+00  0.00000000E+00  0.00000000E+00
  0.00000000E+00  0.00000000E+00  0.00000000E+00
  0.00000000E+00  0.00000000E+00  0.00000000E+00
  0.00000000E+00  0.00000000E+00  0.00000000E+00
  0.00000000E+00  0.00000000E+00  0.00000000E+00
  0.00000000E+00  0.00000000E+00  0.00000000E+00
  0.00000000E+00  0.00000000E+00  0.00000000E+00
  0.00000000E+00  0.00000000E+00  0.00000000E+00
  0.00000000E+00  0.00000000E+00  0.00000000E+00
  0.00000000E+00  0.00000000E+00  0.00000000E+00
  0.00000000E+00  0.00000000E+00  0.00000000E+00
  0.00000000E+00  0.00000000E+00  0.00000000E+00
  0.00000000E+00  0.00000000E+00  0.00000000E+00
