C194N9H18Fe1                            
   1.00000000000000     
    22.2398066238529211    0.0000000000000000    0.0000000000000000
   -11.1217184971568841   19.2591893997741153    0.0000000000000000
     0.0000000000000010    0.0000000000000017   15.9818238400747017
   C    N    H    Co
   194     9    18     1
Direct
  0.9999938168799289  0.9999980614182462  0.1131051259997520
  0.0370529400168564  0.0740806326313930  0.1133402516548543
  0.0000078200382205  0.1111130846443515  0.1131487584191362
  0.0370621953871861  0.1851934265738464  0.1133472872021954
  0.0000168706461778  0.2222313221742027  0.1130715979405252
  0.0370677332136964  0.2963073507002463  0.1131590050758078
  0.0000126604377400  0.3333378730597332  0.1129898796838589
  0.0370738910160711  0.4074187647292504  0.1129536626347303
  0.0000020545335957  0.4444358548755503  0.1130137981404502
  0.0370523334091359  0.5185116485833987  0.1129814513669416
  0.9999871050952436  0.5555403746777472  0.1130468114756908
  0.0370269614589205  0.6296095125430838  0.1129350155149638
  0.9999705760537978  0.6666431967241948  0.1129261766061447
  0.0370168677950389  0.7407234716193756  0.1127896293409876
  0.9999697692761416  0.7777582027741303  0.1128477897907771
  0.0370228322204511  0.8518403518239950  0.1128300811778473
  0.9999803377498324  0.8888802747600977  0.1129428651063833
  0.0370356508973515  0.9629593983585210  0.1130918714896936
  0.1111206018463164  0.0000255937025244  0.1133925963951512
  0.1481787319857020  0.0741052628221368  0.1139334096307891
  0.1111363056347585  0.1111392589909315  0.1138969164762926
  0.1481861931432249  0.1852078410652354  0.1143613916226300
  0.1111464927369710  0.2222433374759660  0.1139975768791004
  0.1481938880479063  0.2963238000181505  0.1141852100284666
  0.1111561491041826  0.3333655641159865  0.1135324022864665
  0.1482015334750599  0.4074330406323838  0.1132392766073309
  0.1111598540556216  0.4444583881793207  0.1128203910968324
  0.1482013234857149  0.5185128165074886  0.1125575416889291
  0.1111378066393414  0.5555280315978308  0.1127692988427214
  0.1481649422378766  0.6296038897301273  0.1127988689231643
  0.1111130897481587  0.6666446702741737  0.1128449046627509
  0.1481420352361411  0.7407204490595518  0.1127478691486701
  0.1110982466205499  0.7777644839095572  0.1127177373729964
  0.1481383396412426  0.8518435843636212  0.1127712988123832
  0.1111006362102245  0.8888902533705902  0.1128792543178889
  0.1481529154210577  0.9629752181213220  0.1132363175259101
  0.2222297879092920  0.0000341324967934  0.1134765762947296
  0.2592635796811962  0.0741090885149589  0.1140766764197423
  0.2222419069024042  0.1111569096447482  0.1144092965351433
  0.2592765253008693  0.1852156592143857  0.1150779768069725
  0.2222494346111290  0.2222496436235772  0.1150843347502288
  0.2592671951517502  0.2963076274972067  0.1155971828367512
  0.2222550609591281  0.3333610532079163  0.1149857871803519
  0.2592620783831876  0.4074185139489970  0.1149029150312302
  0.2222535216167856  0.4444636065009817  0.1137276905294371
  0.2592772466037800  0.5185115680722774  0.1134012078729967
  0.2222539408362607  0.5555303672945442  0.1125956635086567
  0.2592757946821465  0.6295747491170545  0.1126535568463183
  0.2222463999973670  0.6666234287964272  0.1126997769400262
  0.2592612385196347  0.7407014660203544  0.1127962895634056
  0.2222213491444265  0.7777543017086117  0.1127424909475394
  0.2592536630628928  0.8518386821073847  0.1127505965507964
  0.2222183140723075  0.8888875626096038  0.1128347802473613
  0.2592559297852475  0.9629729643657186  0.1131361816377350
  0.3333303949168496  0.0000141091225316  0.1131622466217053
  0.3703588199213712  0.0740979724225781  0.1136027937023485
  0.3333318318315293  0.1111530709384851  0.1141964176933925
  0.3703626893703102  0.1852173342650261  0.1148117472583792
  0.3333262393101677  0.2222438642037261  0.1154345244282240
  0.3703671168378051  0.2962994502085934  0.1161839481997262
  0.3333240275426022  0.3333325322436096  0.1163933709098686
  0.3703425202869681  0.4073959879515741  0.1168653431111579
  0.3333202623324851  0.4444487874363716  0.1159980186743823
  0.3703571667995433  0.5185145829070450  0.1157687017665054
  0.3333206244176097  0.5555374481189332  0.1143814973907027
  0.3703684202573712  0.6295829793092764  0.1141448957271010
  0.3333290596376983  0.6666036995249627  0.1132643705292153
  0.3703637695101847  0.7406790947210666  0.1133264966696359
  0.3333378376722180  0.7777428773325425  0.1129481194248427
  0.3703689559303385  0.8518246783229202  0.1128631817186871
  0.3333289365767058  0.8888757628668884  0.1127684836686811
  0.3703617836158983  0.9629579253127361  0.1128658387453783
  0.4444356838359411  0.9999952223983044  0.1128287033031654
  0.4814659284131224  0.0740776452698100  0.1129872258849360
  0.4444361437811466  0.1111380455783149  0.1134519984760658
  0.4814629388517488  0.1852154355524718  0.1137797594645775
  0.4444275287979451  0.2222561652242447  0.1145666623138979
  0.4814824636841095  0.2963201729482634  0.1150097264138168
  0.4444372425136436  0.3333321190580847  0.1161125592911532
  0.4814809052217157  0.4073860646052836  0.1167759949549065
  0.4444280735489556  0.4444286137838489  0.1174095600323568
  0.4814736812807752  0.5185181183132528  0.1173483878327488
  0.4444240877627053  0.5555540167898840  0.1165802274231211
  0.4814729056908362  0.6296091367112879  0.1159842098350552
  0.4444249133256406  0.6666130833531341  0.1149547167899385
  0.4814738836922885  0.7406765482302333  0.1145327718664646
  0.4444416874070640  0.7777228753843133  0.1137639957249874
  0.4814662966129575  0.8518012873364640  0.1134096870195904
  0.4444357538349806  0.8888589158378437  0.1129696799495647
  0.4814699699400293  0.9629431447690493  0.1128157557034442
  0.5555414311322409  0.9999804294764445  0.1128378061376836
  0.5925717335904395  0.0740616497496802  0.1127576234871270
  0.5555371076280906  0.1111147373578447  0.1128681395027229
  0.5925666714418441  0.1851990299578432  0.1129361603707721
  0.5555417242834935  0.2222634676906452  0.1132898694994680
  0.5925780195723078  0.2963322695509518  0.1132282444701858
  0.5555352524910973  0.3333497233479221  0.1142214328927480
  0.5925808193328237  0.4073979793719076  0.1146616890478782
  0.5555498724221763  0.4444255404556472  0.1160695443058728
  0.5925829516920516  0.5184965693917860  0.1163145270847679
  0.5555567928404130  0.5555454577312418  0.1169537394087072
  0.5925779131650089  0.6296088093612653  0.1164214239621018
  0.5555324458290016  0.6666367107862214  0.1160982326017930
  0.5925760570532503  0.7406883588306030  0.1153462534273686
  0.5555400386704932  0.7777125469093633  0.1147514032386638
  0.5925696040589727  0.8517814080561052  0.1141254241015943
  0.5555434606815410  0.8888411304087924  0.1135399112216291
  0.5925728725507113  0.9629246715838988  0.1131069546317462
  0.6666479598410575  0.9999659980280384  0.1130753826742250
  0.7036875025822766  0.0740545857426440  0.1128074614993153
  0.6666496379093303  0.1111025450807261  0.1127445796504247
  0.7036823425303993  0.1851850963189463  0.1127557229561233
  0.6666411384383082  0.2222401382132304  0.1127851423593071
  0.7036557297387063  0.2963181095664638  0.1126872556460512
  0.6666248539246951  0.3333605072717774  0.1126623304945795
  0.7036539784349500  0.4074063112137054  0.1128404383758195
  0.6666312755701753  0.4444270237431311  0.1138170319734471
  0.7036511497779543  0.5184761836593523  0.1142772704824893
  0.6666381874562077  0.5555253678685688  0.1153537240565683
  0.7036497185078332  0.6295849440528514  0.1152744776041530
  0.6666304617547496  0.6666312156206828  0.1156940797542632
  0.7036527596234166  0.7406884656200035  0.1150861130547796
  0.6666248772386112  0.7777185019405053  0.1149931675948537
  0.7036586311073449  0.8517720401024604  0.1143165786346145
  0.6666403998435939  0.8888269256723902  0.1139961515990890
  0.7036745811231455  0.9629063107551588  0.1134023830905875
  0.7777524045123414  0.9999647432544876  0.1131741616455244
  0.8148036785380839  0.0740519469886678  0.1128412965547767
  0.7777635041442466  0.1110983500710248  0.1127557902561449
  0.8148048631618110  0.1851762829967853  0.1127332806225709
  0.7777589394037605  0.2222196944036696  0.1127799234444709
  0.8147892616649841  0.2962985746558573  0.1128914967300290
  0.7777366494663696  0.3333399515030280  0.1128575964418985
  0.8147633809032442  0.4074124220771793  0.1129021640976333
  0.7777025664187249  0.4444285056618611  0.1128206159303602
  0.8147428503566516  0.5184793762403714  0.1131786456566957
  0.7777059910607633  0.5555100487508327  0.1137361939415626
  0.8147487000249569  0.6295822080796967  0.1138813435629871
  0.7777121874660864  0.6666229656788261  0.1144555569666679
  0.8147552002205742  0.7406969708729534  0.1141189210604381
  0.7777112168622935  0.7777275580530727  0.1143942040859898
  0.8147620930714012  0.8517940236538450  0.1138739544052854
  0.7777244759236197  0.8888312062041450  0.1138649108677541
  0.8147839115505988  0.9629153089327218  0.1133318515392929
  0.8888661772917530  0.9999770816850315  0.1130612354915996
  0.9259219766705513  0.0740599343695649  0.1129157205234534
  0.8888797521390472  0.1110982349076224  0.1128032280282625
  0.9259333513124588  0.1851830350273573  0.1128158168600280
  0.8888860699946619  0.2222203958733928  0.1127843012157044
  0.9259285999114439  0.2962950616806737  0.1128969136272033
  0.8888749720562146  0.3333309079197377  0.1129521342985456
  0.9259108405630485  0.4074013238498537  0.1130541888891514
  0.8888492594747248  0.4444300835468482  0.1130764738705921
  0.9258998176327324  0.5185056237960239  0.1131130002837679
  0.8888307117228109  0.5555240765607934  0.1131615343974914
  0.9258865343535021  0.6296018977032816  0.1131387409792595
  0.8888338774171345  0.6666344838247440  0.1133539796802623
  0.9258845670786400  0.7407109287113443  0.1131673713123931
  0.8888372344371547  0.7777433259209232  0.1134316945446656
  0.9258957769257563  0.8518259161953523  0.1131754502795914
  0.8888487156307008  0.8888573196582925  0.1133357133870945
  0.9259083395897463  0.9629397008457232  0.1130968830872447
  0.2673824605912358  0.1340575929857124  0.3724138666063510
  0.3366668993164339  0.1874698384483864  0.3657082516976615
  0.3492496953897160  0.2557924043016371  0.3605382164278907
  0.2941742942329455  0.2702155313624246  0.3611058483170950
  0.2247900562537453  0.2167973313803060  0.3673110079406214
  0.2121737727028901  0.1485496110648228  0.3733635752332276
  0.3258541477091299  0.3455270823549625  0.3557412279785979
  0.4133094333740885  0.3226615932619694  0.3554572658619719
  0.3182236430242611  0.4455864816061847  0.3487886049496396
  0.3952662037671217  0.5596270639009759  0.3501672920070931
  0.2780777299064923  0.4810506646824209  0.3432152612818840
  0.3266085820494595  0.5528921440521017  0.3443363785319278
  0.3051706590531680  0.6023414896310513  0.3396600811827071
  0.2336837655937316  0.5777047358572673  0.3335708489924087
  0.1850281495780166  0.5056481588942958  0.3321441889815446
  0.2065654180302658  0.4562898744191841  0.3369743887631387
  0.5332755599782075  0.3894945838853090  0.3506620640114448
  0.6100124792059489  0.5036676601966903  0.3550667706202972
  0.6239001248654077  0.3476588376881509  0.3375967145017711
  0.6955501719498258  0.3727538133429533  0.3334656736147963
  0.7440086995014852  0.4448128412085737  0.3372774885002059
  0.7220836038857854  0.4937009848574903  0.3449663239631562
  0.6503691912730858  0.4684943341591534  0.3489978999323071
  0.6020618997877065  0.3966338120858026  0.3456222002881333
  0.6023833696332588  0.6036924632229699  0.3606294679558957
  0.5151605057711066  0.6264334997028129  0.3575310349061667
  0.6342461638041783  0.6791736051569686  0.3645239890319729
  0.7036714504768113  0.7325950127800951  0.3688043800802276
  0.7164692253882379  0.8010713196138113  0.3708888094806113
  0.6613058525987796  0.8155530262577599  0.3684826622686188
  0.5918911411118657  0.7619760617692464  0.3640689062648690
  0.5792184340931641  0.6935650059656098  0.3622812777415092
  0.3979678492850809  0.3762404036289837  0.3531146082867593
  0.2884291714169578  0.3769323979310570  0.3526255944429622
  0.3889386892199411  0.4940888209124026  0.3509992401604407
  0.4755059723757284  0.3280848134561083  0.3526864067926283
  0.5392617459752387  0.4549741505888960  0.3543097019426824
  0.6398048553770650  0.5723008503215397  0.3597897475605478
  0.5305657769705618  0.5730899140603185  0.3560511995034119
  0.4529842559375652  0.6210010615215111  0.3542182008987282
  0.4605622850646682  0.4728622493402170  0.4804153145373746
  0.2555645443562966  0.0802142161704182  0.3774757908991759
  0.3796178757063018  0.1768975611164265  0.3651909584190562
  0.1826377738426856  0.2285532380596678  0.3681865976090180
  0.1588471341924418  0.1056078139499732  0.3793437880756372
  0.3431581320659731  0.6577662004679041  0.3404990623643513
  0.2150000920620840  0.6146559430021128  0.3292407309290439
  0.1297683732333539  0.4883911576709039  0.3265705681286803
  0.1695387921369260  0.4006219743076116  0.3355046390764898
  0.5861066585641765  0.2922630815637532  0.3340111115492448
  0.7145402130800207  0.3362274930038822  0.3264505874364403
  0.7994556126564234  0.4624486134829198  0.3335171372599177
  0.7589288053102976  0.5493961170874329  0.3473707100131165
  0.7457694722616566  0.7207805257865090  0.3705832456098790
  0.7699114117529220  0.8441515154004620  0.3744760502843008
  0.6732563873170463  0.8695628239000470  0.3701908738443507
  0.5490020838207101  0.7726092078427129  0.3621908729652219
  0.4886753942117608  0.4492071555038066  0.4977708711549766
  0.4101404275472618  0.4349934807997400  0.4947382674630276
  0.4638540139914653  0.4741601486784077  0.3604082754584965
 
  0.00000000E+00  0.00000000E+00  0.00000000E+00
  0.00000000E+00  0.00000000E+00  0.00000000E+00
  0.00000000E+00  0.00000000E+00  0.00000000E+00
  0.00000000E+00  0.00000000E+00  0.00000000E+00
  0.00000000E+00  0.00000000E+00  0.00000000E+00
  0.00000000E+00  0.00000000E+00  0.00000000E+00
  0.00000000E+00  0.00000000E+00  0.00000000E+00
  0.00000000E+00  0.00000000E+00  0.00000000E+00
  0.00000000E+00  0.00000000E+00  0.00000000E+00
  0.00000000E+00  0.00000000E+00  0.00000000E+00
  0.00000000E+00  0.00000000E+00  0.00000000E+00
  0.00000000E+00  0.00000000E+00  0.00000000E+00
  0.00000000E+00  0.00000000E+00  0.00000000E+00
  0.00000000E+00  0.00000000E+00  0.00000000E+00
  0.00000000E+00  0.00000000E+00  0.00000000E+00
  0.00000000E+00  0.00000000E+00  0.00000000E+00
  0.00000000E+00  0.00000000E+00  0.00000000E+00
  0.00000000E+00  0.00000000E+00  0.00000000E+00
  0.00000000E+00  0.00000000E+00  0.00000000E+00
  0.00000000E+00  0.00000000E+00  0.00000000E+00
  0.00000000E+00  0.00000000E+00  0.00000000E+00
  0.00000000E+00  0.00000000E+00  0.00000000E+00
  0.00000000E+00  0.00000000E+00  0.00000000E+00
  0.00000000E+00  0.00000000E+00  0.00000000E+00
  0.00000000E+00  0.00000000E+00  0.00000000E+00
  0.00000000E+00  0.00000000E+00  0.00000000E+00
  0.00000000E+00  0.00000000E+00  0.00000000E+00
  0.00000000E+00  0.00000000E+00  0.00000000E+00
  0.00000000E+00  0.00000000E+00  0.00000000E+00
  0.00000000E+00  0.00000000E+00  0.00000000E+00
  0.00000000E+00  0.00000000E+00  0.00000000E+00
  0.00000000E+00  0.00000000E+00  0.00000000E+00
  0.00000000E+00  0.00000000E+00  0.00000000E+00
  0.00000000E+00  0.00000000E+00  0.00000000E+00
  0.00000000E+00  0.00000000E+00  0.00000000E+00
  0.00000000E+00  0.00000000E+00  0.00000000E+00
  0.00000000E+00  0.00000000E+00  0.00000000E+00
  0.00000000E+00  0.00000000E+00  0.00000000E+00
  0.00000000E+00  0.00000000E+00  0.00000000E+00
  0.00000000E+00  0.00000000E+00  0.00000000E+00
  0.00000000E+00  0.00000000E+00  0.00000000E+00
  0.00000000E+00  0.00000000E+00  0.00000000E+00
  0.00000000E+00  0.00000000E+00  0.00000000E+00
  0.00000000E+00  0.00000000E+00  0.00000000E+00
  0.00000000E+00  0.00000000E+00  0.00000000E+00
  0.00000000E+00  0.00000000E+00  0.00000000E+00
  0.00000000E+00  0.00000000E+00  0.00000000E+00
  0.00000000E+00  0.00000000E+00  0.00000000E+00
  0.00000000E+00  0.00000000E+00  0.00000000E+00
  0.00000000E+00  0.00000000E+00  0.00000000E+00
  0.00000000E+00  0.00000000E+00  0.00000000E+00
  0.00000000E+00  0.00000000E+00  0.00000000E+00
  0.00000000E+00  0.00000000E+00  0.00000000E+00
  0.00000000E+00  0.00000000E+00  0.00000000E+00
  0.00000000E+00  0.00000000E+00  0.00000000E+00
  0.00000000E+00  0.00000000E+00  0.00000000E+00
  0.00000000E+00  0.00000000E+00  0.00000000E+00
  0.00000000E+00  0.00000000E+00  0.00000000E+00
  0.00000000E+00  0.00000000E+00  0.00000000E+00
  0.00000000E+00  0.00000000E+00  0.00000000E+00
  0.00000000E+00  0.00000000E+00  0.00000000E+00
  0.00000000E+00  0.00000000E+00  0.00000000E+00
  0.00000000E+00  0.00000000E+00  0.00000000E+00
  0.00000000E+00  0.00000000E+00  0.00000000E+00
  0.00000000E+00  0.00000000E+00  0.00000000E+00
  0.00000000E+00  0.00000000E+00  0.00000000E+00
  0.00000000E+00  0.00000000E+00  0.00000000E+00
  0.00000000E+00  0.00000000E+00  0.00000000E+00
  0.00000000E+00  0.00000000E+00  0.00000000E+00
  0.00000000E+00  0.00000000E+00  0.00000000E+00
  0.00000000E+00  0.00000000E+00  0.00000000E+00
  0.00000000E+00  0.00000000E+00  0.00000000E+00
  0.00000000E+00  0.00000000E+00  0.00000000E+00
  0.00000000E+00  0.00000000E+00  0.00000000E+00
  0.00000000E+00  0.00000000E+00  0.00000000E+00
  0.00000000E+00  0.00000000E+00  0.00000000E+00
  0.00000000E+00  0.00000000E+00  0.00000000E+00
  0.00000000E+00  0.00000000E+00  0.00000000E+00
  0.00000000E+00  0.00000000E+00  0.00000000E+00
  0.00000000E+00  0.00000000E+00  0.00000000E+00
  0.00000000E+00  0.00000000E+00  0.00000000E+00
  0.00000000E+00  0.00000000E+00  0.00000000E+00
  0.00000000E+00  0.00000000E+00  0.00000000E+00
  0.00000000E+00  0.00000000E+00  0.00000000E+00
  0.00000000E+00  0.00000000E+00  0.00000000E+00
  0.00000000E+00  0.00000000E+00  0.00000000E+00
  0.00000000E+00  0.00000000E+00  0.00000000E+00
  0.00000000E+00  0.00000000E+00  0.00000000E+00
  0.00000000E+00  0.00000000E+00  0.00000000E+00
  0.00000000E+00  0.00000000E+00  0.00000000E+00
  0.00000000E+00  0.00000000E+00  0.00000000E+00
  0.00000000E+00  0.00000000E+00  0.00000000E+00
  0.00000000E+00  0.00000000E+00  0.00000000E+00
  0.00000000E+00  0.00000000E+00  0.00000000E+00
  0.00000000E+00  0.00000000E+00  0.00000000E+00
  0.00000000E+00  0.00000000E+00  0.00000000E+00
  0.00000000E+00  0.00000000E+00  0.00000000E+00
  0.00000000E+00  0.00000000E+00  0.00000000E+00
  0.00000000E+00  0.00000000E+00  0.00000000E+00
  0.00000000E+00  0.00000000E+00  0.00000000E+00
  0.00000000E+00  0.00000000E+00  0.00000000E+00
  0.00000000E+00  0.00000000E+00  0.00000000E+00
  0.00000000E+00  0.00000000E+00  0.00000000E+00
  0.00000000E+00  0.00000000E+00  0.00000000E+00
  0.00000000E+00  0.00000000E+00  0.00000000E+00
  0.00000000E+00  0.00000000E+00  0.00000000E+00
  0.00000000E+00  0.00000000E+00  0.00000000E+00
  0.00000000E+00  0.00000000E+00  0.00000000E+00
  0.00000000E+00  0.00000000E+00  0.00000000E+00
  0.00000000E+00  0.00000000E+00  0.00000000E+00
  0.00000000E+00  0.00000000E+00  0.00000000E+00
  0.00000000E+00  0.00000000E+00  0.00000000E+00
  0.00000000E+00  0.00000000E+00  0.00000000E+00
  0.00000000E+00  0.00000000E+00  0.00000000E+00
  0.00000000E+00  0.00000000E+00  0.00000000E+00
  0.00000000E+00  0.00000000E+00  0.00000000E+00
  0.00000000E+00  0.00000000E+00  0.00000000E+00
  0.00000000E+00  0.00000000E+00  0.00000000E+00
  0.00000000E+00  0.00000000E+00  0.00000000E+00
  0.00000000E+00  0.00000000E+00  0.00000000E+00
  0.00000000E+00  0.00000000E+00  0.00000000E+00
  0.00000000E+00  0.00000000E+00  0.00000000E+00
  0.00000000E+00  0.00000000E+00  0.00000000E+00
  0.00000000E+00  0.00000000E+00  0.00000000E+00
  0.00000000E+00  0.00000000E+00  0.00000000E+00
  0.00000000E+00  0.00000000E+00  0.00000000E+00
  0.00000000E+00  0.00000000E+00  0.00000000E+00
  0.00000000E+00  0.00000000E+00  0.00000000E+00
  0.00000000E+00  0.00000000E+00  0.00000000E+00
  0.00000000E+00  0.00000000E+00  0.00000000E+00
  0.00000000E+00  0.00000000E+00  0.00000000E+00
  0.00000000E+00  0.00000000E+00  0.00000000E+00
  0.00000000E+00  0.00000000E+00  0.00000000E+00
  0.00000000E+00  0.00000000E+00  0.00000000E+00
  0.00000000E+00  0.00000000E+00  0.00000000E+00
  0.00000000E+00  0.00000000E+00  0.00000000E+00
  0.00000000E+00  0.00000000E+00  0.00000000E+00
  0.00000000E+00  0.00000000E+00  0.00000000E+00
  0.00000000E+00  0.00000000E+00  0.00000000E+00
  0.00000000E+00  0.00000000E+00  0.00000000E+00
  0.00000000E+00  0.00000000E+00  0.00000000E+00
  0.00000000E+00  0.00000000E+00  0.00000000E+00
  0.00000000E+00  0.00000000E+00  0.00000000E+00
  0.00000000E+00  0.00000000E+00  0.00000000E+00
  0.00000000E+00  0.00000000E+00  0.00000000E+00
  0.00000000E+00  0.00000000E+00  0.00000000E+00
  0.00000000E+00  0.00000000E+00  0.00000000E+00
  0.00000000E+00  0.00000000E+00  0.00000000E+00
  0.00000000E+00  0.00000000E+00  0.00000000E+00
  0.00000000E+00  0.00000000E+00  0.00000000E+00
  0.00000000E+00  0.00000000E+00  0.00000000E+00
  0.00000000E+00  0.00000000E+00  0.00000000E+00
  0.00000000E+00  0.00000000E+00  0.00000000E+00
  0.00000000E+00  0.00000000E+00  0.00000000E+00
  0.00000000E+00  0.00000000E+00  0.00000000E+00
  0.00000000E+00  0.00000000E+00  0.00000000E+00
  0.00000000E+00  0.00000000E+00  0.00000000E+00
  0.00000000E+00  0.00000000E+00  0.00000000E+00
  0.00000000E+00  0.00000000E+00  0.00000000E+00
  0.00000000E+00  0.00000000E+00  0.00000000E+00
  0.00000000E+00  0.00000000E+00  0.00000000E+00
  0.00000000E+00  0.00000000E+00  0.00000000E+00
  0.00000000E+00  0.00000000E+00  0.00000000E+00
  0.00000000E+00  0.00000000E+00  0.00000000E+00
  0.00000000E+00  0.00000000E+00  0.00000000E+00
  0.00000000E+00  0.00000000E+00  0.00000000E+00
  0.00000000E+00  0.00000000E+00  0.00000000E+00
  0.00000000E+00  0.00000000E+00  0.00000000E+00
  0.00000000E+00  0.00000000E+00  0.00000000E+00
  0.00000000E+00  0.00000000E+00  0.00000000E+00
  0.00000000E+00  0.00000000E+00  0.00000000E+00
  0.00000000E+00  0.00000000E+00  0.00000000E+00
  0.00000000E+00  0.00000000E+00  0.00000000E+00
  0.00000000E+00  0.00000000E+00  0.00000000E+00
  0.00000000E+00  0.00000000E+00  0.00000000E+00
  0.00000000E+00  0.00000000E+00  0.00000000E+00
  0.00000000E+00  0.00000000E+00  0.00000000E+00
  0.00000000E+00  0.00000000E+00  0.00000000E+00
  0.00000000E+00  0.00000000E+00  0.00000000E+00
  0.00000000E+00  0.00000000E+00  0.00000000E+00
  0.00000000E+00  0.00000000E+00  0.00000000E+00
  0.00000000E+00  0.00000000E+00  0.00000000E+00
  0.00000000E+00  0.00000000E+00  0.00000000E+00
  0.00000000E+00  0.00000000E+00  0.00000000E+00
  0.00000000E+00  0.00000000E+00  0.00000000E+00
  0.00000000E+00  0.00000000E+00  0.00000000E+00
  0.00000000E+00  0.00000000E+00  0.00000000E+00
  0.00000000E+00  0.00000000E+00  0.00000000E+00
  0.00000000E+00  0.00000000E+00  0.00000000E+00
  0.00000000E+00  0.00000000E+00  0.00000000E+00
  0.00000000E+00  0.00000000E+00  0.00000000E+00
  0.00000000E+00  0.00000000E+00  0.00000000E+00
  0.00000000E+00  0.00000000E+00  0.00000000E+00
  0.00000000E+00  0.00000000E+00  0.00000000E+00
  0.00000000E+00  0.00000000E+00  0.00000000E+00
  0.00000000E+00  0.00000000E+00  0.00000000E+00
  0.00000000E+00  0.00000000E+00  0.00000000E+00
  0.00000000E+00  0.00000000E+00  0.00000000E+00
  0.00000000E+00  0.00000000E+00  0.00000000E+00
  0.00000000E+00  0.00000000E+00  0.00000000E+00
  0.00000000E+00  0.00000000E+00  0.00000000E+00
  0.00000000E+00  0.00000000E+00  0.00000000E+00
  0.00000000E+00  0.00000000E+00  0.00000000E+00
  0.00000000E+00  0.00000000E+00  0.00000000E+00
  0.00000000E+00  0.00000000E+00  0.00000000E+00
  0.00000000E+00  0.00000000E+00  0.00000000E+00
  0.00000000E+00  0.00000000E+00  0.00000000E+00
  0.00000000E+00  0.00000000E+00  0.00000000E+00
  0.00000000E+00  0.00000000E+00  0.00000000E+00
  0.00000000E+00  0.00000000E+00  0.00000000E+00
  0.00000000E+00  0.00000000E+00  0.00000000E+00
  0.00000000E+00  0.00000000E+00  0.00000000E+00
  0.00000000E+00  0.00000000E+00  0.00000000E+00
  0.00000000E+00  0.00000000E+00  0.00000000E+00
  0.00000000E+00  0.00000000E+00  0.00000000E+00
  0.00000000E+00  0.00000000E+00  0.00000000E+00
  0.00000000E+00  0.00000000E+00  0.00000000E+00
  0.00000000E+00  0.00000000E+00  0.00000000E+00
  0.00000000E+00  0.00000000E+00  0.00000000E+00
  0.00000000E+00  0.00000000E+00  0.00000000E+00
  0.00000000E+00  0.00000000E+00  0.00000000E+00
  0.00000000E+00  0.00000000E+00  0.00000000E+00
