C194N8H16Fe1                            
   1.00000000000000     
    22.2382897191451505    0.0000000000000000    0.0000000000000000
   -11.1209599209951229   19.2578757932503351    0.0000000000000000
     0.0000000000000010    0.0000000000000017   15.9807337719714901
   C    N    H    Ni
   194     8    16     1
Direct
  0.0000005412196131  0.0000055731047652  0.1126974266372045
  0.0370623331107751  0.0740910168685858  0.1127990957046308
  0.0000140888339502  0.1111229317203808  0.1127260778517041
  0.0370714555949689  0.1852028977854232  0.1128016183374214
  0.0000219371417884  0.2222360826401584  0.1127052685680709
  0.0370760419441538  0.2963157447094105  0.1126923138916780
  0.0000201970538143  0.3333431126192892  0.1126713645490938
  0.0370798049161536  0.4074240483983047  0.1125840258161972
  0.0000071889233126  0.4444420874596275  0.1127104673153809
  0.0370550449430453  0.5185163233074235  0.1126833223129751
  0.9999918921650490  0.5555453623075337  0.1127687464232778
  0.0370316892510871  0.6296183821295713  0.1127242265999797
  0.9999765705371786  0.6666498504924050  0.1127020924351925
  0.0370224196053854  0.7407284647804175  0.1126297966871022
  0.9999747605449585  0.7777652129997250  0.1126194472306778
  0.0370276577981272  0.8518459022316733  0.1125994872615124
  0.9999854995707196  0.8888846871015090  0.1126297644913308
  0.0370435661237210  0.9629693086927844  0.1126944092500182
  0.1111272900641964  0.0000317013589068  0.1128268060458311
  0.1481849609700774  0.0741132354372525  0.1130397337944942
  0.1111451347752066  0.1111477979327375  0.1130229949061103
  0.1481983307274177  0.1852227067815875  0.1131778249370754
  0.1111554621558710  0.2222535405960642  0.1130256565744361
  0.1482054641511255  0.2963310592050803  0.1129944788672574
  0.1111629908365117  0.3333699475444476  0.1126977444915411
  0.1482082207284918  0.4074379771419387  0.1123643911933314
  0.1111646970682827  0.4444620350098560  0.1122662534188024
  0.1482063866536620  0.5185198502245214  0.1120540416867897
  0.1111433552616319  0.5555351261460615  0.1124383130052351
  0.1481693653175640  0.6296111390856893  0.1125504384183387
  0.1111161223154085  0.6666512725472558  0.1126797382818268
  0.1481490471821800  0.7407288393888578  0.1126385702936616
  0.1111029162974759  0.7777703106783633  0.1126086164274369
  0.1481454384247485  0.8518508764892374  0.1126057844745816
  0.1111082385871072  0.8888963437533945  0.1126265961397621
  0.1481579774409525  0.9629819660382495  0.1127709499878904
  0.2222360400502410  0.0000399555913972  0.1128676848343133
  0.2592738243323680  0.0741231555098736  0.1130841604449131
  0.2222521253153218  0.1111672778102104  0.1132064539830822
  0.2592890495893698  0.1852311609038395  0.1134278460385261
  0.2222626089040105  0.2222656498051094  0.1134205993543702
  0.2592855033087957  0.2963252925369417  0.1135639754307789
  0.2222656138822359  0.3333694172633415  0.1132348365501628
  0.2592811974605596  0.4074269506235240  0.1130599105532752
  0.2222649211317247  0.4444674687687993  0.1124210498958575
  0.2592841862022084  0.5185153541269401  0.1121971981783645
  0.2222583932502999  0.5555366305114120  0.1118757460022195
  0.2592775317562470  0.6295808466770652  0.1120658640392946
  0.2222490194575428  0.6666284323837175  0.1123893750508174
  0.2592660735412835  0.7407116982277273  0.1125771705228473
  0.2222264951796120  0.7777627643065159  0.1126255067721473
  0.2592615090787405  0.8518454557235131  0.1126211650677149
  0.2222237338295940  0.8888956962582597  0.1126354448401159
  0.2592621294192554  0.9629805105524483  0.1127417304932266
  0.3333368799679448  0.0000231239660096  0.1127558454078823
  0.3703683040298102  0.0741100362375064  0.1129094103746482
  0.3333413749235774  0.1111657351098074  0.1131088662034543
  0.3703736800231283  0.1852348241589823  0.1132816739187987
  0.3333394829817280  0.2222600632693741  0.1135230208796472
  0.3703791425517551  0.2963216896153753  0.1137956149409760
  0.3333450055498943  0.3333551548987259  0.1138939997999415
  0.3703741925783248  0.4074162492365545  0.1140524809485441
  0.3333390014839139  0.4444526420705870  0.1136090819318056
  0.3703701874546894  0.5185118216314137  0.1134811686569819
  0.3333305316592714  0.5555352706363905  0.1127345989231401
  0.3703732917279083  0.6295863027669242  0.1127210593702017
  0.3333334401325203  0.6666088319044050  0.1124084459146246
  0.3703674909997687  0.7406856493267071  0.1126689289725959
  0.3333415702124114  0.7777490406912406  0.1126287085373150
  0.3703708864837054  0.8518319168011601  0.1126481340905059
  0.3333348224107695  0.8888847562878794  0.1126211245039812
  0.3703687199599273  0.9629674632430536  0.1126501750644096
  0.4444407950882550  0.0000063614177819  0.1126368192883476
  0.4814711231151918  0.0740880254545004  0.1126866140895686
  0.4444419304369873  0.1111476533724627  0.1128389190082615
  0.4814699355938714  0.1852303230644310  0.1128637477047150
  0.4444373968633357  0.2222729676246615  0.1131051246048855
  0.4814835601309611  0.2963343124431788  0.1131454066850921
  0.4444433961798637  0.3333538508003357  0.1136643853599963
  0.4814735036143034  0.4074065676026564  0.1139421420983737
  0.4444379230409936  0.4444425400203897  0.1142592618289910
  0.4814705320075703  0.5185041552460348  0.1142543273269609
  0.4444361650318314  0.5555376846002105  0.1139165068132115
  0.4814718633574202  0.6295958183976467  0.1136639266641879
  0.4444283554245132  0.6666116016442771  0.1132009881056177
  0.4814739956636416  0.7406774673788021  0.1131426187514535
  0.4444428304138697  0.7777259123767308  0.1128985883899318
  0.4814717467732450  0.8518099868611912  0.1128301136439802
  0.4444426857878412  0.8888684405145071  0.1126807159734469
  0.4814745185420932  0.9629513344011116  0.1126316746496698
  0.5555454543785388  0.9999897412486618  0.1126397187956911
  0.5925778518593532  0.0740711774448144  0.1126163083672722
  0.5555430189240909  0.1111245145326762  0.1126398408700098
  0.5925722977709782  0.1852083154473334  0.1125838169299485
  0.5555457085935416  0.2222722495800866  0.1125848376474252
  0.5925803612261120  0.2963418787787262  0.1122847172041261
  0.5555339608782219  0.3333581651484678  0.1126642596318845
  0.5925752882519930  0.4074080500729522  0.1128317657539739
  0.5555388428573949  0.4444343186318420  0.1135789733946808
  0.5925688209245692  0.5184948992640059  0.1137666569494158
  0.5555358214536739  0.5555325366166386  0.1141115454764332
  0.5925661583795190  0.6295930138835431  0.1139186091596613
  0.5555323092484343  0.6666273054933853  0.1137719254022329
  0.5925739446146991  0.7406877972063768  0.1134843344637702
  0.5555416551995833  0.7777152548634731  0.1132778228102111
  0.5925724290487153  0.8517889394365667  0.1130928134918747
  0.5555461433233049  0.8888489168589402  0.1128866242262347
  0.5925768108078486  0.9629327699266099  0.1127333504685168
  0.6666533344922385  0.9999763430432225  0.1127187469742168
  0.7036918448108906  0.0740619113615963  0.1126295877749044
  0.6666533967533113  0.1111111797218811  0.1126202196943211
  0.7036867662286994  0.1851927907177853  0.1126183987084417
  0.6666460123474778  0.2222455894750794  0.1125230460855988
  0.7036622452891308  0.2963277569274112  0.1123015308392468
  0.6666313157121948  0.3333673384205440  0.1119761847531819
  0.7036568525211422  0.4074113964601764  0.1119898150155620
  0.6666287855342929  0.4444328580079073  0.1124421292827904
  0.7036484893979349  0.5184801447041565  0.1127903340221295
  0.6666286278823037  0.5555233180250241  0.1133421720417331
  0.7036476016327526  0.6295829683748480  0.1134153475332909
  0.6666265644517679  0.6666267362522476  0.1136201389495852
  0.7036542955378877  0.7406881458534116  0.1134063114461838
  0.6666260562261499  0.7777196579321952  0.1133744310378262
  0.7036638070185717  0.8517828050311067  0.1131563493500494
  0.6666432319689051  0.8888325634108014  0.1130528063772971
  0.7036806957143042  0.9629186936252054  0.1128372444526136
  0.7777603306502598  0.9999751601570850  0.1127435984360687
  0.8148079573835290  0.0740601597007995  0.1126146912657617
  0.7777694319246606  0.1111049698256465  0.1126040847168568
  0.8148108712366877  0.1851856744427280  0.1126243652029473
  0.7777641586823165  0.2222251362361831  0.1126468808126404
  0.8147957904726510  0.2963056779688245  0.1126873312382983
  0.7777395629814166  0.3333436094513473  0.1125329043507008
  0.8147676841387153  0.4074173641879852  0.1124866115897589
  0.7777045278011272  0.4444306700582814  0.1122024360445124
  0.8147482865864646  0.5184863914943989  0.1125012167072938
  0.7777071194157230  0.5555135493273298  0.1127029907077741
  0.8147535572747202  0.6295855393065892  0.1129038209236484
  0.7777119462565523  0.6666226631377725  0.1131415582868911
  0.8147594478137137  0.7406993011709915  0.1130609718808060
  0.7777154655912710  0.7777294244794959  0.1131672861769601
  0.8147710014460898  0.8518049837708546  0.1129972750406196
  0.7777319660857529  0.8888384088746619  0.1130056372990680
  0.8147910196694497  0.9629253133174345  0.1128015902302764
  0.8888734646689684  0.9999848025286227  0.1126856227569561
  0.9259303641962404  0.0740701289593275  0.1126301022767748
  0.8888885311236621  0.1111082755752122  0.1125977298347465
  0.9259403001055588  0.1851907793645609  0.1126235802766402
  0.8888914774960597  0.2222259057697471  0.1126414051612841
  0.9259348152604900  0.2963027074477864  0.1127005208828820
  0.8888784226579034  0.3333339782041662  0.1127357032084007
  0.9259177274911750  0.4074084596917444  0.1127715059435133
  0.8888539118161134  0.4444349906677303  0.1127242761605487
  0.9259046970211884  0.5185111932274538  0.1127589034980545
  0.8888327536852358  0.5555285463941715  0.1127024224444355
  0.9258914296349090  0.6296073208057464  0.1127410912477060
  0.8888365753817311  0.6666374301694802  0.1127824277928369
  0.9258922230412381  0.7407176232027695  0.1127263050229601
  0.8888428326068407  0.7777485419347840  0.1128143471902519
  0.9259030696997925  0.8518318815855253  0.1127179725777623
  0.8888544552813471  0.8888635375981266  0.1127857235976890
  0.9259157546722321  0.9629484625156053  0.1126921154447018
  0.2672810534796568  0.1339387716512448  0.3754162355766937
  0.3365987160693464  0.1873582196226096  0.3682535909538416
  0.3493043356650034  0.2557568046638679  0.3627010294882567
  0.2942597635836037  0.2702275018431095  0.3636526887275267
  0.2248622067898296  0.2167958165667798  0.3704226590398108
  0.2121390300993369  0.1484643931511727  0.3765567124874849
  0.3259960171760454  0.3456889747801384  0.3580163364336997
  0.4135209914883404  0.3227379144791342  0.3569756167046805
  0.3183319817212649  0.4458208253541756  0.3511727902261512
  0.3953175592779843  0.5601751400348931  0.3526564736471656
  0.2781014298876769  0.4813082317519175  0.3452926438862107
  0.3265129490493663  0.5532501614759084  0.3466610619210684
  0.3047928513641907  0.6025490803121727  0.3419661043717284
  0.2333039486457835  0.5778014508696572  0.3351479282640639
  0.1848223019118365  0.5057238761717215  0.3332590979038699
  0.2065384913395150  0.4565051936045066  0.3385077013704603
  0.5335937369974957  0.3895368375859150  0.3511758602045845
  0.6105533079243983  0.5038216307691883  0.3561197102428935
  0.6244529471580123  0.3476592609294471  0.3386976973382687
  0.6961307456902901  0.3726620170872295  0.3346709941556441
  0.7446301742310482  0.4446442399320105  0.3390258245063862
  0.7227127714717199  0.4935510942415675  0.3470989862941778
  0.6509523928292111  0.4685137175299587  0.3504093575362930
  0.6025439230703711  0.3966404524009164  0.3465861709243967
  0.6027847191545561  0.6038855247774038  0.3631404377463880
  0.5153235803724385  0.6268874658309471  0.3602358573860869
  0.6345648348003152  0.6794132843127159  0.3671921684913215
  0.7040652605523618  0.7329770744699218  0.3716060946477597
  0.7169593604889997  0.8015055974699621  0.3733620016576040
  0.6618713681976658  0.8160739050550418  0.3706203944229856
  0.5924247072342084  0.7624871812294387  0.3664466048348629
  0.5795707872590157  0.6939214350330261  0.3648930310435290
  0.3980404196288774  0.3761998642827393  0.3557713372327385
  0.2885882517654963  0.3771082337531197  0.3542831483056048
  0.3889599451185717  0.4945814878410459  0.3543120554093520
  0.4757160895598176  0.3281383926417334  0.3529776934873965
  0.5398908092872219  0.4550531695194806  0.3553383269645778
  0.6402209192682591  0.5724557425001109  0.3610145801877351
  0.5307688749677695  0.5733955859262210  0.3596980051466332
  0.4531566475960247  0.6215295580860456  0.3561398220102916
  0.2554305702189978  0.0800691247001382  0.3807053665191944
  0.3793623433884363  0.1765086091711652  0.3676355002740195
  0.1826171533220275  0.2284082958775713  0.3715826161398397
  0.1587850065972987  0.1055438612785196  0.3827362112807293
  0.3424897052823610  0.6580591785700491  0.3432498635276886
  0.2144842504516689  0.6146650722321283  0.3306392295855289
  0.1295453255778369  0.4883547639114596  0.3270582760201535
  0.1694543029592808  0.4008472796650153  0.3368412299882735
  0.5867812928278298  0.2922371807133501  0.3349584984494172
  0.7150915096353430  0.3361068161394698  0.3272910027381144
  0.8001017099075440  0.4622411581967896  0.3353516800868235
  0.7597818295713452  0.5491688364981542  0.3501752947582020
  0.7462795638691730  0.7213401826138082  0.3736387961522425
  0.7704396023436146  0.8445872994897812  0.3769085157530867
  0.6738919803606223  0.8701356464166352  0.3718033532047826
  0.5497061635583833  0.7733708622711788  0.3643785147925911
  0.4644134493209862  0.4747981110236807  0.3560736761516736
 
  0.00000000E+00  0.00000000E+00  0.00000000E+00
  0.00000000E+00  0.00000000E+00  0.00000000E+00
  0.00000000E+00  0.00000000E+00  0.00000000E+00
  0.00000000E+00  0.00000000E+00  0.00000000E+00
  0.00000000E+00  0.00000000E+00  0.00000000E+00
  0.00000000E+00  0.00000000E+00  0.00000000E+00
  0.00000000E+00  0.00000000E+00  0.00000000E+00
  0.00000000E+00  0.00000000E+00  0.00000000E+00
  0.00000000E+00  0.00000000E+00  0.00000000E+00
  0.00000000E+00  0.00000000E+00  0.00000000E+00
  0.00000000E+00  0.00000000E+00  0.00000000E+00
  0.00000000E+00  0.00000000E+00  0.00000000E+00
  0.00000000E+00  0.00000000E+00  0.00000000E+00
  0.00000000E+00  0.00000000E+00  0.00000000E+00
  0.00000000E+00  0.00000000E+00  0.00000000E+00
  0.00000000E+00  0.00000000E+00  0.00000000E+00
  0.00000000E+00  0.00000000E+00  0.00000000E+00
  0.00000000E+00  0.00000000E+00  0.00000000E+00
  0.00000000E+00  0.00000000E+00  0.00000000E+00
  0.00000000E+00  0.00000000E+00  0.00000000E+00
  0.00000000E+00  0.00000000E+00  0.00000000E+00
  0.00000000E+00  0.00000000E+00  0.00000000E+00
  0.00000000E+00  0.00000000E+00  0.00000000E+00
  0.00000000E+00  0.00000000E+00  0.00000000E+00
  0.00000000E+00  0.00000000E+00  0.00000000E+00
  0.00000000E+00  0.00000000E+00  0.00000000E+00
  0.00000000E+00  0.00000000E+00  0.00000000E+00
  0.00000000E+00  0.00000000E+00  0.00000000E+00
  0.00000000E+00  0.00000000E+00  0.00000000E+00
  0.00000000E+00  0.00000000E+00  0.00000000E+00
  0.00000000E+00  0.00000000E+00  0.00000000E+00
  0.00000000E+00  0.00000000E+00  0.00000000E+00
  0.00000000E+00  0.00000000E+00  0.00000000E+00
  0.00000000E+00  0.00000000E+00  0.00000000E+00
  0.00000000E+00  0.00000000E+00  0.00000000E+00
  0.00000000E+00  0.00000000E+00  0.00000000E+00
  0.00000000E+00  0.00000000E+00  0.00000000E+00
  0.00000000E+00  0.00000000E+00  0.00000000E+00
  0.00000000E+00  0.00000000E+00  0.00000000E+00
  0.00000000E+00  0.00000000E+00  0.00000000E+00
  0.00000000E+00  0.00000000E+00  0.00000000E+00
  0.00000000E+00  0.00000000E+00  0.00000000E+00
  0.00000000E+00  0.00000000E+00  0.00000000E+00
  0.00000000E+00  0.00000000E+00  0.00000000E+00
  0.00000000E+00  0.00000000E+00  0.00000000E+00
  0.00000000E+00  0.00000000E+00  0.00000000E+00
  0.00000000E+00  0.00000000E+00  0.00000000E+00
  0.00000000E+00  0.00000000E+00  0.00000000E+00
  0.00000000E+00  0.00000000E+00  0.00000000E+00
  0.00000000E+00  0.00000000E+00  0.00000000E+00
  0.00000000E+00  0.00000000E+00  0.00000000E+00
  0.00000000E+00  0.00000000E+00  0.00000000E+00
  0.00000000E+00  0.00000000E+00  0.00000000E+00
  0.00000000E+00  0.00000000E+00  0.00000000E+00
  0.00000000E+00  0.00000000E+00  0.00000000E+00
  0.00000000E+00  0.00000000E+00  0.00000000E+00
  0.00000000E+00  0.00000000E+00  0.00000000E+00
  0.00000000E+00  0.00000000E+00  0.00000000E+00
  0.00000000E+00  0.00000000E+00  0.00000000E+00
  0.00000000E+00  0.00000000E+00  0.00000000E+00
  0.00000000E+00  0.00000000E+00  0.00000000E+00
  0.00000000E+00  0.00000000E+00  0.00000000E+00
  0.00000000E+00  0.00000000E+00  0.00000000E+00
  0.00000000E+00  0.00000000E+00  0.00000000E+00
  0.00000000E+00  0.00000000E+00  0.00000000E+00
  0.00000000E+00  0.00000000E+00  0.00000000E+00
  0.00000000E+00  0.00000000E+00  0.00000000E+00
  0.00000000E+00  0.00000000E+00  0.00000000E+00
  0.00000000E+00  0.00000000E+00  0.00000000E+00
  0.00000000E+00  0.00000000E+00  0.00000000E+00
  0.00000000E+00  0.00000000E+00  0.00000000E+00
  0.00000000E+00  0.00000000E+00  0.00000000E+00
  0.00000000E+00  0.00000000E+00  0.00000000E+00
  0.00000000E+00  0.00000000E+00  0.00000000E+00
  0.00000000E+00  0.00000000E+00  0.00000000E+00
  0.00000000E+00  0.00000000E+00  0.00000000E+00
  0.00000000E+00  0.00000000E+00  0.00000000E+00
  0.00000000E+00  0.00000000E+00  0.00000000E+00
  0.00000000E+00  0.00000000E+00  0.00000000E+00
  0.00000000E+00  0.00000000E+00  0.00000000E+00
  0.00000000E+00  0.00000000E+00  0.00000000E+00
  0.00000000E+00  0.00000000E+00  0.00000000E+00
  0.00000000E+00  0.00000000E+00  0.00000000E+00
  0.00000000E+00  0.00000000E+00  0.00000000E+00
  0.00000000E+00  0.00000000E+00  0.00000000E+00
  0.00000000E+00  0.00000000E+00  0.00000000E+00
  0.00000000E+00  0.00000000E+00  0.00000000E+00
  0.00000000E+00  0.00000000E+00  0.00000000E+00
  0.00000000E+00  0.00000000E+00  0.00000000E+00
  0.00000000E+00  0.00000000E+00  0.00000000E+00
  0.00000000E+00  0.00000000E+00  0.00000000E+00
  0.00000000E+00  0.00000000E+00  0.00000000E+00
  0.00000000E+00  0.00000000E+00  0.00000000E+00
  0.00000000E+00  0.00000000E+00  0.00000000E+00
  0.00000000E+00  0.00000000E+00  0.00000000E+00
  0.00000000E+00  0.00000000E+00  0.00000000E+00
  0.00000000E+00  0.00000000E+00  0.00000000E+00
  0.00000000E+00  0.00000000E+00  0.00000000E+00
  0.00000000E+00  0.00000000E+00  0.00000000E+00
  0.00000000E+00  0.00000000E+00  0.00000000E+00
  0.00000000E+00  0.00000000E+00  0.00000000E+00
  0.00000000E+00  0.00000000E+00  0.00000000E+00
  0.00000000E+00  0.00000000E+00  0.00000000E+00
  0.00000000E+00  0.00000000E+00  0.00000000E+00
  0.00000000E+00  0.00000000E+00  0.00000000E+00
  0.00000000E+00  0.00000000E+00  0.00000000E+00
  0.00000000E+00  0.00000000E+00  0.00000000E+00
  0.00000000E+00  0.00000000E+00  0.00000000E+00
  0.00000000E+00  0.00000000E+00  0.00000000E+00
  0.00000000E+00  0.00000000E+00  0.00000000E+00
  0.00000000E+00  0.00000000E+00  0.00000000E+00
  0.00000000E+00  0.00000000E+00  0.00000000E+00
  0.00000000E+00  0.00000000E+00  0.00000000E+00
  0.00000000E+00  0.00000000E+00  0.00000000E+00
  0.00000000E+00  0.00000000E+00  0.00000000E+00
  0.00000000E+00  0.00000000E+00  0.00000000E+00
  0.00000000E+00  0.00000000E+00  0.00000000E+00
  0.00000000E+00  0.00000000E+00  0.00000000E+00
  0.00000000E+00  0.00000000E+00  0.00000000E+00
  0.00000000E+00  0.00000000E+00  0.00000000E+00
  0.00000000E+00  0.00000000E+00  0.00000000E+00
  0.00000000E+00  0.00000000E+00  0.00000000E+00
  0.00000000E+00  0.00000000E+00  0.00000000E+00
  0.00000000E+00  0.00000000E+00  0.00000000E+00
  0.00000000E+00  0.00000000E+00  0.00000000E+00
  0.00000000E+00  0.00000000E+00  0.00000000E+00
  0.00000000E+00  0.00000000E+00  0.00000000E+00
  0.00000000E+00  0.00000000E+00  0.00000000E+00
  0.00000000E+00  0.00000000E+00  0.00000000E+00
  0.00000000E+00  0.00000000E+00  0.00000000E+00
  0.00000000E+00  0.00000000E+00  0.00000000E+00
  0.00000000E+00  0.00000000E+00  0.00000000E+00
  0.00000000E+00  0.00000000E+00  0.00000000E+00
  0.00000000E+00  0.00000000E+00  0.00000000E+00
  0.00000000E+00  0.00000000E+00  0.00000000E+00
  0.00000000E+00  0.00000000E+00  0.00000000E+00
  0.00000000E+00  0.00000000E+00  0.00000000E+00
  0.00000000E+00  0.00000000E+00  0.00000000E+00
  0.00000000E+00  0.00000000E+00  0.00000000E+00
  0.00000000E+00  0.00000000E+00  0.00000000E+00
  0.00000000E+00  0.00000000E+00  0.00000000E+00
  0.00000000E+00  0.00000000E+00  0.00000000E+00
  0.00000000E+00  0.00000000E+00  0.00000000E+00
  0.00000000E+00  0.00000000E+00  0.00000000E+00
  0.00000000E+00  0.00000000E+00  0.00000000E+00
  0.00000000E+00  0.00000000E+00  0.00000000E+00
  0.00000000E+00  0.00000000E+00  0.00000000E+00
  0.00000000E+00  0.00000000E+00  0.00000000E+00
  0.00000000E+00  0.00000000E+00  0.00000000E+00
  0.00000000E+00  0.00000000E+00  0.00000000E+00
  0.00000000E+00  0.00000000E+00  0.00000000E+00
  0.00000000E+00  0.00000000E+00  0.00000000E+00
  0.00000000E+00  0.00000000E+00  0.00000000E+00
  0.00000000E+00  0.00000000E+00  0.00000000E+00
  0.00000000E+00  0.00000000E+00  0.00000000E+00
  0.00000000E+00  0.00000000E+00  0.00000000E+00
  0.00000000E+00  0.00000000E+00  0.00000000E+00
  0.00000000E+00  0.00000000E+00  0.00000000E+00
  0.00000000E+00  0.00000000E+00  0.00000000E+00
  0.00000000E+00  0.00000000E+00  0.00000000E+00
  0.00000000E+00  0.00000000E+00  0.00000000E+00
  0.00000000E+00  0.00000000E+00  0.00000000E+00
  0.00000000E+00  0.00000000E+00  0.00000000E+00
  0.00000000E+00  0.00000000E+00  0.00000000E+00
  0.00000000E+00  0.00000000E+00  0.00000000E+00
  0.00000000E+00  0.00000000E+00  0.00000000E+00
  0.00000000E+00  0.00000000E+00  0.00000000E+00
  0.00000000E+00  0.00000000E+00  0.00000000E+00
  0.00000000E+00  0.00000000E+00  0.00000000E+00
  0.00000000E+00  0.00000000E+00  0.00000000E+00
  0.00000000E+00  0.00000000E+00  0.00000000E+00
  0.00000000E+00  0.00000000E+00  0.00000000E+00
  0.00000000E+00  0.00000000E+00  0.00000000E+00
  0.00000000E+00  0.00000000E+00  0.00000000E+00
  0.00000000E+00  0.00000000E+00  0.00000000E+00
  0.00000000E+00  0.00000000E+00  0.00000000E+00
  0.00000000E+00  0.00000000E+00  0.00000000E+00
  0.00000000E+00  0.00000000E+00  0.00000000E+00
  0.00000000E+00  0.00000000E+00  0.00000000E+00
  0.00000000E+00  0.00000000E+00  0.00000000E+00
  0.00000000E+00  0.00000000E+00  0.00000000E+00
  0.00000000E+00  0.00000000E+00  0.00000000E+00
  0.00000000E+00  0.00000000E+00  0.00000000E+00
  0.00000000E+00  0.00000000E+00  0.00000000E+00
  0.00000000E+00  0.00000000E+00  0.00000000E+00
  0.00000000E+00  0.00000000E+00  0.00000000E+00
  0.00000000E+00  0.00000000E+00  0.00000000E+00
  0.00000000E+00  0.00000000E+00  0.00000000E+00
  0.00000000E+00  0.00000000E+00  0.00000000E+00
  0.00000000E+00  0.00000000E+00  0.00000000E+00
  0.00000000E+00  0.00000000E+00  0.00000000E+00
  0.00000000E+00  0.00000000E+00  0.00000000E+00
  0.00000000E+00  0.00000000E+00  0.00000000E+00
  0.00000000E+00  0.00000000E+00  0.00000000E+00
  0.00000000E+00  0.00000000E+00  0.00000000E+00
  0.00000000E+00  0.00000000E+00  0.00000000E+00
  0.00000000E+00  0.00000000E+00  0.00000000E+00
  0.00000000E+00  0.00000000E+00  0.00000000E+00
  0.00000000E+00  0.00000000E+00  0.00000000E+00
  0.00000000E+00  0.00000000E+00  0.00000000E+00
  0.00000000E+00  0.00000000E+00  0.00000000E+00
  0.00000000E+00  0.00000000E+00  0.00000000E+00
  0.00000000E+00  0.00000000E+00  0.00000000E+00
  0.00000000E+00  0.00000000E+00  0.00000000E+00
  0.00000000E+00  0.00000000E+00  0.00000000E+00
  0.00000000E+00  0.00000000E+00  0.00000000E+00
  0.00000000E+00  0.00000000E+00  0.00000000E+00
  0.00000000E+00  0.00000000E+00  0.00000000E+00
  0.00000000E+00  0.00000000E+00  0.00000000E+00
  0.00000000E+00  0.00000000E+00  0.00000000E+00
  0.00000000E+00  0.00000000E+00  0.00000000E+00
  0.00000000E+00  0.00000000E+00  0.00000000E+00
  0.00000000E+00  0.00000000E+00  0.00000000E+00
  0.00000000E+00  0.00000000E+00  0.00000000E+00
  0.00000000E+00  0.00000000E+00  0.00000000E+00
  0.00000000E+00  0.00000000E+00  0.00000000E+00
  0.00000000E+00  0.00000000E+00  0.00000000E+00
  0.00000000E+00  0.00000000E+00  0.00000000E+00
  0.00000000E+00  0.00000000E+00  0.00000000E+00
