C194N9H18Fe1                            
   1.00000000000000     
    22.2389950484869416    0.0000000000000000    0.0000000000000000
   -11.1213126432341287   19.2584865931378033    0.0000000000000000
     0.0000000000000010    0.0000000000000017   15.9812406311128896
   C    N    H    Mn
   194     9    18     1
Direct
  0.9999925456113701  0.9999978728519849  0.1130812661589502
  0.0370546780702767  0.0740853466080296  0.1132999302536035
  0.0000091220719014  0.1111155788740490  0.1131255135242881
  0.0370668231797282  0.1851984691254387  0.1133157588657028
  0.0000193643653148  0.2222337026033330  0.1130541015191611
  0.0370684962544559  0.2963084192689536  0.1131205910268349
  0.0000141044687609  0.3333378664823670  0.1129581171728731
  0.0370746483596278  0.4074216551753338  0.1129082561996100
  0.0000050235878319  0.4444367518344379  0.1129789011785434
  0.0370541992979909  0.5185132512969162  0.1129437506877977
  0.9999913704607977  0.5555426316673433  0.1130157191554204
  0.0370268729377372  0.6296108085630081  0.1129122755669201
  0.9999713589333652  0.6666437315525258  0.1129102446843362
  0.0370166720353140  0.7407245422462481  0.1127831119564178
  0.9999717435099527  0.7777584338148031  0.1128393833813846
  0.0370242071943139  0.8518426801364072  0.1128223337052816
  0.9999825721878963  0.8888818376637673  0.1129291237030756
  0.0370356958463489  0.9629614173842782  0.1130727005080914
  0.1111239749624886  0.0000255555741617  0.1133545104592244
  0.1481810653210474  0.0741104543591646  0.1138638566754011
  0.1111405405178019  0.1111438276859076  0.1138258826936038
  0.1481878736272506  0.1852121396329309  0.1142655125802179
  0.1111473664805160  0.2222465673369101  0.1139192955357089
  0.1481952758944161  0.2963265417294494  0.1140762146059302
  0.1111604624434861  0.3333660025901324  0.1134513692809662
  0.1482040459181135  0.4074351850511775  0.1131532707239629
  0.1111636115794497  0.4444606853537536  0.1127556289382383
  0.1482008583871064  0.5185106680424667  0.1125077266906445
  0.1111400681199726  0.5555272011072105  0.1127283689074972
  0.1481651388251066  0.6296053156467920  0.1127761239637763
  0.1111157880040210  0.6666433834119871  0.1128281618220157
  0.1481467358003314  0.7407245029366578  0.1127415730672894
  0.1111020062938550  0.7777672173680727  0.1127133742129303
  0.1481389464887428  0.8518425582807865  0.1127633993607162
  0.1111026839838658  0.8888909456861356  0.1128678456401957
  0.1481513207320120  0.9629781466651224  0.1132092215911982
  0.2222344967073013  0.0000388734542440  0.1134307870379843
  0.2592665818021302  0.0741155363051362  0.1139934752536149
  0.2222444921209217  0.1111608920433937  0.1143093518271812
  0.2592788848537992  0.1852238775733781  0.1149446051702512
  0.2222533645753089  0.2222547989282049  0.1149475557177198
  0.2592703703513379  0.2963138083149488  0.1154268873658992
  0.2222575201216586  0.3333653376924275  0.1148352851114893
  0.2592607908093356  0.4074169418342137  0.1147850600588001
  0.2222551162097872  0.4444622863071217  0.1136387700638579
  0.2592771822964153  0.5185123897784578  0.1133501416345695
  0.2222573288139102  0.5555284327230723  0.1125636565244577
  0.2592784185267689  0.6295755385361161  0.1126340360259732
  0.2222501517525686  0.6666247305395174  0.1126854109938904
  0.2592617172764164  0.7407015313365264  0.1127879795003963
  0.2222222305352517  0.7777550635666728  0.1127378036493738
  0.2592552484324884  0.8518403489142656  0.1127445953393647
  0.2222214912815588  0.8888885708876870  0.1128235199770060
  0.2592593929173361  0.9629767284994841  0.1131110789387790
  0.3333307755736357  0.0000166306691227  0.1131374822006777
  0.3703605005829402  0.0741049621044070  0.1135535566657353
  0.3333367347585110  0.1111590813116194  0.1141054636559886
  0.3703687616756426  0.1852288479939048  0.1146905555991395
  0.3333313284440393  0.2222517490540383  0.1152805370601939
  0.3703647909863932  0.2963047250249815  0.1160115822042087
  0.3333231838837776  0.3333351882752353  0.1162233231085494
  0.3703380006988581  0.4073973261874499  0.1167395116154424
  0.3333202518695586  0.4444472974091127  0.1159039814003719
  0.3703572666026886  0.5185153575493899  0.1157175254520837
  0.3333232235818642  0.5555392185066523  0.1143304347111709
  0.3703680323507754  0.6295807855879687  0.1140869963156419
  0.3333284407140269  0.6666011259336386  0.1132303188396335
  0.3703624238870944  0.7406791691078922  0.1132898117833463
  0.3333405142533437  0.7777411351363455  0.1129333410007831
  0.3703700216888990  0.8518270747780150  0.1128520736366241
  0.3333342220041260  0.8888808446041594  0.1127606904967138
  0.3703622819639207  0.9629589976594417  0.1128544136946346
  0.4444378648260638  0.9999984348427375  0.1128193548219301
  0.4814671353055218  0.0740832692083586  0.1129717903190866
  0.4444383505233915  0.1111436645017250  0.1134109885128112
  0.4814611077853712  0.1852205484890064  0.1137230960378091
  0.4444277364126279  0.2222619256230161  0.1144625855224177
  0.4814769855449583  0.2963247397580915  0.1149073717550380
  0.4444351148176580  0.3333305744997830  0.1159783501387537
  0.4814779532795086  0.4073862458450321  0.1166757020583873
  0.4444275314377251  0.4444296134488042  0.1173017755981505
  0.4814704959111964  0.5185148059166451  0.1172660906010137
  0.4444221170049829  0.5555519841983099  0.1165287267391406
  0.4814679048986861  0.6296066912057938  0.1158759337018296
  0.4444247692808290  0.6666091261656462  0.1148519219501125
  0.4814729807763811  0.7406771197993081  0.1144209875910747
  0.4444424928446793  0.7777220451729647  0.1137005897308967
  0.4814665128399724  0.8518007188508818  0.1133702379988506
  0.4444372525675391  0.8888604766675741  0.1129541588592176
  0.4814678240803048  0.9629449311087086  0.1128077220886041
  0.5555429474572477  0.9999853468941780  0.1128294676389388
  0.5925709001511308  0.0740625224627323  0.1127537563727188
  0.5555356825925344  0.1111175364174528  0.1128612950850609
  0.5925640265999448  0.1852038900760604  0.1129304556536113
  0.5555420037128229  0.2222666723907452  0.1132724251903525
  0.5925767548837371  0.2963392458627538  0.1132143471461049
  0.5555317213482738  0.3333533608771830  0.1141682826224368
  0.5925760408463958  0.4073954567469471  0.1146006893032521
  0.5555465579884000  0.4444250628712112  0.1159799115666900
  0.5925782639846489  0.5184961249607269  0.1161980669636620
  0.5555602730984859  0.5555457542546023  0.1168445163945080
  0.5925761277534036  0.6296067430556249  0.1162807699394364
  0.5555336776339104  0.6666333414730659  0.1159514834112585
  0.5925696285286293  0.7406839199600626  0.1151957235650869
  0.5555360069334725  0.7777091805467649  0.1146191575196056
  0.5925658051526455  0.8517828162385470  0.1140318446056980
  0.5555437452717413  0.8888399098838562  0.1134896536242493
  0.5925738066113269  0.9629269074714912  0.1130842821089502
  0.6666454279708702  0.9999675569401347  0.1130497263302317
  0.7036845659474764  0.0740562185440723  0.1127970253658432
  0.6666489806088762  0.1111039127092042  0.1127404294794871
  0.7036830170513326  0.1851896651738372  0.1127513116178633
  0.6666428397846573  0.2222443931420628  0.1127809291990900
  0.7036538311115095  0.2963212440838490  0.1126753679258670
  0.6666229076538315  0.3333636909183753  0.1126559750416476
  0.7036507715208984  0.4074087674708196  0.1128194635247795
  0.6666288165982550  0.4444256592081288  0.1137710577947715
  0.7036500640885919  0.5184783294506730  0.1141913519436031
  0.6666405153497692  0.5555276014825168  0.1152370995533758
  0.7036460988052440  0.6295807314231610  0.1151474156738956
  0.6666294662495460  0.6666297145683941  0.1155584085168258
  0.7036499651915662  0.7406875206776888  0.1149595894645969
  0.6666215792767716  0.7777131540639459  0.1148650106042126
  0.7036585632158960  0.8517760838101367  0.1142208719858431
  0.6666395595136123  0.8888270077405878  0.1139130954906662
  0.7036719525354798  0.9629067821509807  0.1133558771569909
  0.7777545261264649  0.9999661135905100  0.1131457113436909
  0.8148032829701606  0.0740545013518954  0.1128313832896950
  0.7777656463815106  0.1111015283075290  0.1127482200068570
  0.8148030976244058  0.1851773323978350  0.1127273866817475
  0.7777569605654548  0.2222198408988447  0.1127714409545248
  0.8147877622611972  0.2963017268707020  0.1128729650610509
  0.7777361848707400  0.3333397717736233  0.1128311574853811
  0.8147634021762471  0.4074155306788185  0.1128648413452140
  0.7777029003383475  0.4444305923212681  0.1127858875285668
  0.8147417877400116  0.5184792016511039  0.1131256647002203
  0.7777030027813723  0.5555093550214352  0.1136550344937248
  0.8147459668095891  0.6295817111939925  0.1137950506077630
  0.7777112539333046  0.6666201021636766  0.1143446835862889
  0.8147559929014605  0.7406978336329999  0.1140268110922520
  0.7777129831364604  0.7777280838156315  0.1142863175353170
  0.8147624006967362  0.8517946776765939  0.1137974805006650
  0.7777227548710144  0.8888301675358505  0.1138005738327834
  0.8147812081421790  0.9629169109735329  0.1132990488082655
  0.8888681150210616  0.9999806355428689  0.1130430780297260
  0.9259212769113887  0.0740602591619322  0.1129053789288506
  0.8888806298766454  0.1111009837141665  0.1127994061891471
  0.9259320690241708  0.1851853741334182  0.1128113216763111
  0.8888878595600644  0.2222200677198529  0.1127763553595571
  0.9259310220962078  0.2962994240780290  0.1128791051621860
  0.8888762344066592  0.3333331307035081  0.1129295060498947
  0.9259113799541439  0.4074013992959564  0.1130225569678416
  0.8888487081709826  0.4444301184404083  0.1130404445652502
  0.9258988175200855  0.5185075178560581  0.1130792639483218
  0.8888308285915585  0.5555230561905944  0.1131218513147516
  0.9258883752505440  0.6296043279603225  0.1131077889874064
  0.8888354799302860  0.6666357041839603  0.1133083738616278
  0.9258841531029489  0.7407096525524892  0.1131393934408180
  0.8888364329769516  0.7777434100101601  0.1133839896459037
  0.9258944370659634  0.8518268389021415  0.1131457568996410
  0.8888483769294453  0.8888555259757283  0.1132937072691149
  0.9259102653933411  0.9629426188399179  0.1130723902196920
  0.2668562644518957  0.1332938879321048  0.3729451757289510
  0.3360193389017851  0.1865083264074130  0.3652928991501341
  0.3488702523089131  0.2549812788355581  0.3587763856624733
  0.2935344062309113  0.2694306563943201  0.3594826721123141
  0.2241433639155019  0.2158852163799097  0.3669515645754586
  0.2115499044252545  0.1477827770160118  0.3738900471463538
  0.3247679347563164  0.3444597889167085  0.3532563739163237
  0.4128887155288510  0.3214739694691957  0.3528007339830594
  0.3170746339794093  0.4453225847097713  0.3493224220199238
  0.3946773567741957  0.5602888779957809  0.3510054051553624
  0.2771823594947449  0.4811968653664707  0.3431819326990393
  0.3257473109856051  0.5531288575801625  0.3444562988919486
  0.3041219538247901  0.6023999821571664  0.3396117135792878
  0.2325499043547339  0.5777358601222602  0.3334254892935462
  0.1839894840487091  0.5057787752645453  0.3318658738057607
  0.2057222424533123  0.4564964927387720  0.3366144594620835
  0.5339249404586326  0.3889120471274339  0.3508351337410076
  0.6113183945491301  0.5039738079768767  0.3551464411933054
  0.6249880008031496  0.3475949761424957  0.3371716091137600
  0.6967268435911294  0.3726372332879961  0.3332520589928052
  0.7451515444183414  0.4445682433276019  0.3370733419489227
  0.7230976047076325  0.4934598657400571  0.3445629553632301
  0.6514406121089564  0.4683727786897123  0.3485193830383650
  0.6030260162066341  0.3964432249836989  0.3451664427676349
  0.6035572384856991  0.6047402222042351  0.3593024103811047
  0.5156298186456567  0.6276865728164864  0.3562802487216175
  0.6349556581818305  0.6799223349298060  0.3634708224865761
  0.7044435921537442  0.7335783049756941  0.3685978044160052
  0.7172475473875863  0.8019389543255144  0.3711806612198956
  0.6620045872943194  0.8164569469622691  0.3686772299433798
  0.5926902459606467  0.7630390294476612  0.3637020290741617
  0.5796847191454262  0.6943890910148625  0.3611143065200935
  0.3968117942175482  0.3746282018310580  0.3494242212279062
  0.2878364623832468  0.3767282018167606  0.3513888041751727
  0.3879425852603120  0.4942170733317113  0.3535900002593593
  0.4758042089378520  0.3279701734468858  0.3512951269880489
  0.5403766213928307  0.4548555301343313  0.3562301319379984
  0.6405183138066803  0.5725083101084891  0.3585665507225073
  0.5316439573263523  0.5745728104073820  0.3545891398915870
  0.4527470817258177  0.6212222140295154  0.3536263181995238
  0.4590804478952464  0.4686840463562731  0.4823229481076439
  0.2550307526599411  0.0794825902291265  0.3787993280421418
  0.3788857814447510  0.1758100517764447  0.3650849993832637
  0.1820007575378000  0.2276493181394486  0.3681366749591390
  0.1582729623637746  0.1048849104877263  0.3806302814097222
  0.3419944418108187  0.6578656312830304  0.3405409586509123
  0.2138944867146790  0.6147236388919310  0.3291670642273061
  0.1286969190308440  0.4884221317828477  0.3263129914906671
  0.1687056531658229  0.4008168367583664  0.3350603500712026
  0.5872500813225443  0.2921741478536575  0.3337176522485450
  0.7156374696565635  0.3360131054120359  0.3264773003239654
  0.8006206930650208  0.4622444698116368  0.3335863838585098
  0.7599904348642639  0.5491409934250910  0.3471391054976607
  0.7465507817361043  0.7217826281577047  0.3707487162876362
  0.7706631559510981  0.8450181718955818  0.3753296425803896
  0.6739935072153429  0.8704781339438838  0.3708075003346849
  0.5498981185358502  0.7738271451038088  0.3620218115689866
  0.4881625956419455  0.4488857344819976  0.5074014579733728
  0.4091300675431526  0.4387511966407232  0.5040244269780843
  0.4638536803339122  0.4740939030653379  0.3650609240943936
 
  0.00000000E+00  0.00000000E+00  0.00000000E+00
  0.00000000E+00  0.00000000E+00  0.00000000E+00
  0.00000000E+00  0.00000000E+00  0.00000000E+00
  0.00000000E+00  0.00000000E+00  0.00000000E+00
  0.00000000E+00  0.00000000E+00  0.00000000E+00
  0.00000000E+00  0.00000000E+00  0.00000000E+00
  0.00000000E+00  0.00000000E+00  0.00000000E+00
  0.00000000E+00  0.00000000E+00  0.00000000E+00
  0.00000000E+00  0.00000000E+00  0.00000000E+00
  0.00000000E+00  0.00000000E+00  0.00000000E+00
  0.00000000E+00  0.00000000E+00  0.00000000E+00
  0.00000000E+00  0.00000000E+00  0.00000000E+00
  0.00000000E+00  0.00000000E+00  0.00000000E+00
  0.00000000E+00  0.00000000E+00  0.00000000E+00
  0.00000000E+00  0.00000000E+00  0.00000000E+00
  0.00000000E+00  0.00000000E+00  0.00000000E+00
  0.00000000E+00  0.00000000E+00  0.00000000E+00
  0.00000000E+00  0.00000000E+00  0.00000000E+00
  0.00000000E+00  0.00000000E+00  0.00000000E+00
  0.00000000E+00  0.00000000E+00  0.00000000E+00
  0.00000000E+00  0.00000000E+00  0.00000000E+00
  0.00000000E+00  0.00000000E+00  0.00000000E+00
  0.00000000E+00  0.00000000E+00  0.00000000E+00
  0.00000000E+00  0.00000000E+00  0.00000000E+00
  0.00000000E+00  0.00000000E+00  0.00000000E+00
  0.00000000E+00  0.00000000E+00  0.00000000E+00
  0.00000000E+00  0.00000000E+00  0.00000000E+00
  0.00000000E+00  0.00000000E+00  0.00000000E+00
  0.00000000E+00  0.00000000E+00  0.00000000E+00
  0.00000000E+00  0.00000000E+00  0.00000000E+00
  0.00000000E+00  0.00000000E+00  0.00000000E+00
  0.00000000E+00  0.00000000E+00  0.00000000E+00
  0.00000000E+00  0.00000000E+00  0.00000000E+00
  0.00000000E+00  0.00000000E+00  0.00000000E+00
  0.00000000E+00  0.00000000E+00  0.00000000E+00
  0.00000000E+00  0.00000000E+00  0.00000000E+00
  0.00000000E+00  0.00000000E+00  0.00000000E+00
  0.00000000E+00  0.00000000E+00  0.00000000E+00
  0.00000000E+00  0.00000000E+00  0.00000000E+00
  0.00000000E+00  0.00000000E+00  0.00000000E+00
  0.00000000E+00  0.00000000E+00  0.00000000E+00
  0.00000000E+00  0.00000000E+00  0.00000000E+00
  0.00000000E+00  0.00000000E+00  0.00000000E+00
  0.00000000E+00  0.00000000E+00  0.00000000E+00
  0.00000000E+00  0.00000000E+00  0.00000000E+00
  0.00000000E+00  0.00000000E+00  0.00000000E+00
  0.00000000E+00  0.00000000E+00  0.00000000E+00
  0.00000000E+00  0.00000000E+00  0.00000000E+00
  0.00000000E+00  0.00000000E+00  0.00000000E+00
  0.00000000E+00  0.00000000E+00  0.00000000E+00
  0.00000000E+00  0.00000000E+00  0.00000000E+00
  0.00000000E+00  0.00000000E+00  0.00000000E+00
  0.00000000E+00  0.00000000E+00  0.00000000E+00
  0.00000000E+00  0.00000000E+00  0.00000000E+00
  0.00000000E+00  0.00000000E+00  0.00000000E+00
  0.00000000E+00  0.00000000E+00  0.00000000E+00
  0.00000000E+00  0.00000000E+00  0.00000000E+00
  0.00000000E+00  0.00000000E+00  0.00000000E+00
  0.00000000E+00  0.00000000E+00  0.00000000E+00
  0.00000000E+00  0.00000000E+00  0.00000000E+00
  0.00000000E+00  0.00000000E+00  0.00000000E+00
  0.00000000E+00  0.00000000E+00  0.00000000E+00
  0.00000000E+00  0.00000000E+00  0.00000000E+00
  0.00000000E+00  0.00000000E+00  0.00000000E+00
  0.00000000E+00  0.00000000E+00  0.00000000E+00
  0.00000000E+00  0.00000000E+00  0.00000000E+00
  0.00000000E+00  0.00000000E+00  0.00000000E+00
  0.00000000E+00  0.00000000E+00  0.00000000E+00
  0.00000000E+00  0.00000000E+00  0.00000000E+00
  0.00000000E+00  0.00000000E+00  0.00000000E+00
  0.00000000E+00  0.00000000E+00  0.00000000E+00
  0.00000000E+00  0.00000000E+00  0.00000000E+00
  0.00000000E+00  0.00000000E+00  0.00000000E+00
  0.00000000E+00  0.00000000E+00  0.00000000E+00
  0.00000000E+00  0.00000000E+00  0.00000000E+00
  0.00000000E+00  0.00000000E+00  0.00000000E+00
  0.00000000E+00  0.00000000E+00  0.00000000E+00
  0.00000000E+00  0.00000000E+00  0.00000000E+00
  0.00000000E+00  0.00000000E+00  0.00000000E+00
  0.00000000E+00  0.00000000E+00  0.00000000E+00
  0.00000000E+00  0.00000000E+00  0.00000000E+00
  0.00000000E+00  0.00000000E+00  0.00000000E+00
  0.00000000E+00  0.00000000E+00  0.00000000E+00
  0.00000000E+00  0.00000000E+00  0.00000000E+00
  0.00000000E+00  0.00000000E+00  0.00000000E+00
  0.00000000E+00  0.00000000E+00  0.00000000E+00
  0.00000000E+00  0.00000000E+00  0.00000000E+00
  0.00000000E+00  0.00000000E+00  0.00000000E+00
  0.00000000E+00  0.00000000E+00  0.00000000E+00
  0.00000000E+00  0.00000000E+00  0.00000000E+00
  0.00000000E+00  0.00000000E+00  0.00000000E+00
  0.00000000E+00  0.00000000E+00  0.00000000E+00
  0.00000000E+00  0.00000000E+00  0.00000000E+00
  0.00000000E+00  0.00000000E+00  0.00000000E+00
  0.00000000E+00  0.00000000E+00  0.00000000E+00
  0.00000000E+00  0.00000000E+00  0.00000000E+00
  0.00000000E+00  0.00000000E+00  0.00000000E+00
  0.00000000E+00  0.00000000E+00  0.00000000E+00
  0.00000000E+00  0.00000000E+00  0.00000000E+00
  0.00000000E+00  0.00000000E+00  0.00000000E+00
  0.00000000E+00  0.00000000E+00  0.00000000E+00
  0.00000000E+00  0.00000000E+00  0.00000000E+00
  0.00000000E+00  0.00000000E+00  0.00000000E+00
  0.00000000E+00  0.00000000E+00  0.00000000E+00
  0.00000000E+00  0.00000000E+00  0.00000000E+00
  0.00000000E+00  0.00000000E+00  0.00000000E+00
  0.00000000E+00  0.00000000E+00  0.00000000E+00
  0.00000000E+00  0.00000000E+00  0.00000000E+00
  0.00000000E+00  0.00000000E+00  0.00000000E+00
  0.00000000E+00  0.00000000E+00  0.00000000E+00
  0.00000000E+00  0.00000000E+00  0.00000000E+00
  0.00000000E+00  0.00000000E+00  0.00000000E+00
  0.00000000E+00  0.00000000E+00  0.00000000E+00
  0.00000000E+00  0.00000000E+00  0.00000000E+00
  0.00000000E+00  0.00000000E+00  0.00000000E+00
  0.00000000E+00  0.00000000E+00  0.00000000E+00
  0.00000000E+00  0.00000000E+00  0.00000000E+00
  0.00000000E+00  0.00000000E+00  0.00000000E+00
  0.00000000E+00  0.00000000E+00  0.00000000E+00
  0.00000000E+00  0.00000000E+00  0.00000000E+00
  0.00000000E+00  0.00000000E+00  0.00000000E+00
  0.00000000E+00  0.00000000E+00  0.00000000E+00
  0.00000000E+00  0.00000000E+00  0.00000000E+00
  0.00000000E+00  0.00000000E+00  0.00000000E+00
  0.00000000E+00  0.00000000E+00  0.00000000E+00
  0.00000000E+00  0.00000000E+00  0.00000000E+00
  0.00000000E+00  0.00000000E+00  0.00000000E+00
  0.00000000E+00  0.00000000E+00  0.00000000E+00
  0.00000000E+00  0.00000000E+00  0.00000000E+00
  0.00000000E+00  0.00000000E+00  0.00000000E+00
  0.00000000E+00  0.00000000E+00  0.00000000E+00
  0.00000000E+00  0.00000000E+00  0.00000000E+00
  0.00000000E+00  0.00000000E+00  0.00000000E+00
  0.00000000E+00  0.00000000E+00  0.00000000E+00
  0.00000000E+00  0.00000000E+00  0.00000000E+00
  0.00000000E+00  0.00000000E+00  0.00000000E+00
  0.00000000E+00  0.00000000E+00  0.00000000E+00
  0.00000000E+00  0.00000000E+00  0.00000000E+00
  0.00000000E+00  0.00000000E+00  0.00000000E+00
  0.00000000E+00  0.00000000E+00  0.00000000E+00
  0.00000000E+00  0.00000000E+00  0.00000000E+00
  0.00000000E+00  0.00000000E+00  0.00000000E+00
  0.00000000E+00  0.00000000E+00  0.00000000E+00
  0.00000000E+00  0.00000000E+00  0.00000000E+00
  0.00000000E+00  0.00000000E+00  0.00000000E+00
  0.00000000E+00  0.00000000E+00  0.00000000E+00
  0.00000000E+00  0.00000000E+00  0.00000000E+00
  0.00000000E+00  0.00000000E+00  0.00000000E+00
  0.00000000E+00  0.00000000E+00  0.00000000E+00
  0.00000000E+00  0.00000000E+00  0.00000000E+00
  0.00000000E+00  0.00000000E+00  0.00000000E+00
  0.00000000E+00  0.00000000E+00  0.00000000E+00
  0.00000000E+00  0.00000000E+00  0.00000000E+00
  0.00000000E+00  0.00000000E+00  0.00000000E+00
  0.00000000E+00  0.00000000E+00  0.00000000E+00
  0.00000000E+00  0.00000000E+00  0.00000000E+00
  0.00000000E+00  0.00000000E+00  0.00000000E+00
  0.00000000E+00  0.00000000E+00  0.00000000E+00
  0.00000000E+00  0.00000000E+00  0.00000000E+00
  0.00000000E+00  0.00000000E+00  0.00000000E+00
  0.00000000E+00  0.00000000E+00  0.00000000E+00
  0.00000000E+00  0.00000000E+00  0.00000000E+00
  0.00000000E+00  0.00000000E+00  0.00000000E+00
  0.00000000E+00  0.00000000E+00  0.00000000E+00
  0.00000000E+00  0.00000000E+00  0.00000000E+00
  0.00000000E+00  0.00000000E+00  0.00000000E+00
  0.00000000E+00  0.00000000E+00  0.00000000E+00
  0.00000000E+00  0.00000000E+00  0.00000000E+00
  0.00000000E+00  0.00000000E+00  0.00000000E+00
  0.00000000E+00  0.00000000E+00  0.00000000E+00
  0.00000000E+00  0.00000000E+00  0.00000000E+00
  0.00000000E+00  0.00000000E+00  0.00000000E+00
  0.00000000E+00  0.00000000E+00  0.00000000E+00
  0.00000000E+00  0.00000000E+00  0.00000000E+00
  0.00000000E+00  0.00000000E+00  0.00000000E+00
  0.00000000E+00  0.00000000E+00  0.00000000E+00
  0.00000000E+00  0.00000000E+00  0.00000000E+00
  0.00000000E+00  0.00000000E+00  0.00000000E+00
  0.00000000E+00  0.00000000E+00  0.00000000E+00
  0.00000000E+00  0.00000000E+00  0.00000000E+00
  0.00000000E+00  0.00000000E+00  0.00000000E+00
  0.00000000E+00  0.00000000E+00  0.00000000E+00
  0.00000000E+00  0.00000000E+00  0.00000000E+00
  0.00000000E+00  0.00000000E+00  0.00000000E+00
  0.00000000E+00  0.00000000E+00  0.00000000E+00
  0.00000000E+00  0.00000000E+00  0.00000000E+00
  0.00000000E+00  0.00000000E+00  0.00000000E+00
  0.00000000E+00  0.00000000E+00  0.00000000E+00
  0.00000000E+00  0.00000000E+00  0.00000000E+00
  0.00000000E+00  0.00000000E+00  0.00000000E+00
  0.00000000E+00  0.00000000E+00  0.00000000E+00
  0.00000000E+00  0.00000000E+00  0.00000000E+00
  0.00000000E+00  0.00000000E+00  0.00000000E+00
  0.00000000E+00  0.00000000E+00  0.00000000E+00
  0.00000000E+00  0.00000000E+00  0.00000000E+00
  0.00000000E+00  0.00000000E+00  0.00000000E+00
  0.00000000E+00  0.00000000E+00  0.00000000E+00
  0.00000000E+00  0.00000000E+00  0.00000000E+00
  0.00000000E+00  0.00000000E+00  0.00000000E+00
  0.00000000E+00  0.00000000E+00  0.00000000E+00
  0.00000000E+00  0.00000000E+00  0.00000000E+00
  0.00000000E+00  0.00000000E+00  0.00000000E+00
  0.00000000E+00  0.00000000E+00  0.00000000E+00
  0.00000000E+00  0.00000000E+00  0.00000000E+00
  0.00000000E+00  0.00000000E+00  0.00000000E+00
  0.00000000E+00  0.00000000E+00  0.00000000E+00
  0.00000000E+00  0.00000000E+00  0.00000000E+00
  0.00000000E+00  0.00000000E+00  0.00000000E+00
  0.00000000E+00  0.00000000E+00  0.00000000E+00
  0.00000000E+00  0.00000000E+00  0.00000000E+00
  0.00000000E+00  0.00000000E+00  0.00000000E+00
  0.00000000E+00  0.00000000E+00  0.00000000E+00
  0.00000000E+00  0.00000000E+00  0.00000000E+00
  0.00000000E+00  0.00000000E+00  0.00000000E+00
  0.00000000E+00  0.00000000E+00  0.00000000E+00
  0.00000000E+00  0.00000000E+00  0.00000000E+00
  0.00000000E+00  0.00000000E+00  0.00000000E+00
  0.00000000E+00  0.00000000E+00  0.00000000E+00
  0.00000000E+00  0.00000000E+00  0.00000000E+00
  0.00000000E+00  0.00000000E+00  0.00000000E+00
  0.00000000E+00  0.00000000E+00  0.00000000E+00
  0.00000000E+00  0.00000000E+00  0.00000000E+00
