C194N8H16Fe1                            
   1.00000000000000     
    22.2360114494280978    0.0000000000000000    0.0000000000000000
   -11.1198206001870670   19.2559028611683836    0.0000000000000000
     0.0000000000000010    0.0000000000000017   15.9790965767434034
   C    N    H    Co
   194     8    16     1
Direct
  0.0000014189973783  0.0000061296859428  0.1126840346667919
  0.0370654304378419  0.0740939876304125  0.1127774768840126
  0.0000187129212534  0.1111244887190850  0.1127116143357085
  0.0370763929407971  0.1852063657616156  0.1127791600138366
  0.0000274890370449  0.2222396633822825  0.1126927808350686
  0.0370795604418817  0.2963188452079493  0.1126724103858123
  0.0000228912338827  0.3333449393939034  0.1126578108501874
  0.0370837936996438  0.4074275062060977  0.1125589720049973
  0.0000105402651016  0.4444425405489767  0.1126949526646399
  0.0370577916074382  0.5185161481352125  0.1126672496974663
  0.9999918725265147  0.5555438920007987  0.1127570961450814
  0.0370309126252835  0.6296153519804264  0.1127168185351408
  0.9999735565142913  0.6666447599064753  0.1126954509765099
  0.0370201358830755  0.7407281090950661  0.1126272205115626
  0.9999749150479573  0.7777635260328566  0.1126142427679540
  0.0370269187726535  0.8518466717273228  0.1125938922315797
  0.9999880889201123  0.8888872953753975  0.1126205655135948
  0.0370438242964397  0.9629699580892890  0.1126800780947050
  0.1111315352562414  0.0000348372479166  0.1128010265147594
  0.1481915098292745  0.0741201827341271  0.1129946835356179
  0.1111505252211415  0.1111530380382959  0.1129798483861606
  0.1482014877134645  0.1852234435921716  0.1131175711258976
  0.1111601709149070  0.2222561148883884  0.1129788104913771
  0.1482088883397239  0.2963357687231252  0.1129391570757008
  0.1111702199131059  0.3333738300865292  0.1126562686174495
  0.1482131716864643  0.4074417344600789  0.1123177025246633
  0.1111701471542261  0.4444661840660586  0.1122254057429686
  0.1482087568364250  0.5185172842546493  0.1120218445590169
  0.1111464217939897  0.5555308939729642  0.1124145987687726
  0.1481711646921369  0.6296089956111217  0.1125355251860469
  0.1111168684138448  0.6666448371405949  0.1126732905350281
  0.1481509273700610  0.7407283554583657  0.1126367141473850
  0.1111036849296454  0.7777697701800932  0.1126076029962277
  0.1481452617675956  0.8518496348411020  0.1126018497806456
  0.1111086034419841  0.8888983147595155  0.1126183106849155
  0.1481596979542559  0.9629869082185536  0.1127505709049430
  0.2222393975791732  0.0000478210908810  0.1128384484914946
  0.2592755488510079  0.0741272949624801  0.1130353687684078
  0.2222552570626277  0.1111735189714764  0.1131498188625386
  0.2592909235668373  0.1852339620398453  0.1133495793060462
  0.2222673136595859  0.2222694734721102  0.1133352029722801
  0.2592854710061800  0.2963255344737306  0.1134503148757204
  0.2222718980189953  0.3333731293966196  0.1131460158743280
  0.2592792771822090  0.4074274950161509  0.1129584240358881
  0.2222653805147914  0.4444683701272680  0.1123616852335445
  0.2592844920743502  0.5185151206370975  0.1121475900952120
  0.2222590186067492  0.5555329050308799  0.1118527857541238
  0.2592806686783717  0.6295777347892866  0.1120356068398252
  0.2222514620414344  0.6666236806030668  0.1123690713534202
  0.2592651260569525  0.7407053808170900  0.1125674584050387
  0.2222257437699753  0.7777589357803052  0.1126233949697237
  0.2592598094397687  0.8518452312414055  0.1126195450426195
  0.2222253299501986  0.8888961434071732  0.1126294868195217
  0.2592646802809355  0.9629841605249396  0.1127250758465479
  0.3333376605714449  0.0000263875249829  0.1127398160931179
  0.3703684839088055  0.0741159224380183  0.1128775030120082
  0.3333443693775848  0.1111719214897207  0.1130544662859805
  0.3703770518772131  0.1852401511392330  0.1132042108291813
  0.3333430314457715  0.2222668942877064  0.1134295420887454
  0.3703804011737049  0.2963202414273596  0.1136716883702604
  0.3333419851986292  0.3333511185614100  0.1137590900804710
  0.3703605452210184  0.4074108718367597  0.1139404516825522
  0.3333362741440311  0.4444499619369680  0.1134747676221508
  0.3703684151144699  0.5185139000355434  0.1133523628858697
  0.3333281069497431  0.5555355398810065  0.1126504552020222
  0.3703714498420254  0.6295808380865537  0.1126457133804237
  0.3333304919750830  0.6666034769997538  0.1123607722086248
  0.3703647024853254  0.7406794538202490  0.1126360354363314
  0.3333429345300090  0.7777445186243952  0.1126173524913270
  0.3703689857336485  0.8518295529202859  0.1126436288606598
  0.3333378248979102  0.8888852459853425  0.1126193895267349
  0.3703667290198638  0.9629681285323599  0.1126446367914014
  0.4444436254657091  0.0000065435548535  0.1126327597507313
  0.4814717463615423  0.0740927175364234  0.1126792702566348
  0.4444441374262738  0.1111539249238831  0.1128147112487241
  0.4814700663491820  0.1852339726084864  0.1128197524116601
  0.4444367048011557  0.2222757033502560  0.1130258886514710
  0.4814861670452331  0.2963361262964810  0.1130407038033781
  0.4444424651950243  0.3333482975689250  0.1135393673694622
  0.4814825095296769  0.4073997779559377  0.1138380644039998
  0.4444323798065284  0.4444324270553821  0.1142365629941722
  0.4814755737765921  0.5185151788460161  0.1142130054499404
  0.4444290476346922  0.5555431337243988  0.1137999133295580
  0.4814719387604924  0.6295980925754492  0.1135381839154732
  0.4444254151890590  0.6666095139580435  0.1131008118451717
  0.4814745317162021  0.7406740066390753  0.1130684859328355
  0.4444436136158458  0.7777231053008364  0.1128574128426507
  0.4814691741743502  0.8518049418980453  0.1128062485659953
  0.4444435127110040  0.8888654292423084  0.1126721720992165
  0.4814718992577838  0.9629524956206552  0.1126274733293968
  0.5555470323922904  0.9999898060541526  0.1126352999433422
  0.5925763514472280  0.0740726702084302  0.1126159253260681
  0.5555436886141010  0.1111277724801312  0.1126366482475376
  0.5925703547990011  0.1852139239527730  0.1125716330189590
  0.5555484092560903  0.2222782604396372  0.1125491496507749
  0.5925812481041177  0.2963464459011504  0.1122332611973604
  0.5555360753295702  0.3333610726764533  0.1125825465857986
  0.5925774392914889  0.4074065097801451  0.1127363268601584
  0.5555402751832688  0.4444296785744015  0.1134435617414198
  0.5925723702403616  0.5184964216104859  0.1136198366240890
  0.5555473083417724  0.5555365665101988  0.1139839163438907
  0.5925700078330607  0.6295978690528941  0.1137810951881804
  0.5555313638869137  0.6666272004251894  0.1136506851042185
  0.5925726686864508  0.7406826212074193  0.1133960261961704
  0.5555378227251140  0.7777098787759442  0.1132057860988027
  0.5925718014382042  0.8517845911787347  0.1130416006669108
  0.5555458477666733  0.8888430631040976  0.1128567691536446
  0.5925781639189012  0.9629327760010327  0.1127190301185976
  0.6666506686950271  0.9999733203706569  0.1127051899143510
  0.7036908243435036  0.0740630140735377  0.1126252912649974
  0.6666544623776005  0.1111119125341915  0.1126187018534424
  0.7036861376872636  0.1851978945960013  0.1126133040973727
  0.6666482679109151  0.2222532272915529  0.1125101699197799
  0.7036573607479752  0.2963305506948899  0.1122763415284140
  0.6666298534733741  0.3333709795593194  0.1119431545948970
  0.7036533507079881  0.4074127049353535  0.1119613168741296
  0.6666274753998707  0.4444286706171781  0.1123828745914537
  0.7036485281030380  0.5184803797830000  0.1127188493886209
  0.6666292494592625  0.5555209997202724  0.1132306324259460
  0.7036436618867583  0.6295797250042767  0.1133193444941796
  0.6666257670304958  0.6666257390457559  0.1135081116652756
  0.7036503056425474  0.7406864991501010  0.1133236762483207
  0.6666249108467639  0.7777155513612115  0.1132990932310847
  0.7036617983084739  0.8517780664201382  0.1130999619944291
  0.6666415397578049  0.8888290202597418  0.1130060834710633
  0.7036783743130570  0.9629121071706805  0.1128108854969554
  0.7777603387085179  0.9999729614622908  0.1127257155518038
  0.8148076436986855  0.0740584041292607  0.1126089495030627
  0.7777709172562979  0.1111076923716965  0.1126009602931433
  0.8148093711785052  0.1851860099618889  0.1126221958524667
  0.7777634877188717  0.2222275670749383  0.1126415463899519
  0.8147931386098719  0.2963102426897848  0.1126768602445907
  0.7777381725249057  0.3333474001251844  0.1125119680343758
  0.8147636976037447  0.4074189038661018  0.1124592310849053
  0.7777021308015932  0.4444313798454118  0.1121692547819535
  0.8147419402807117  0.5184826956138835  0.1124574668113496
  0.7777011339826743  0.5555065603827103  0.1126496834374890
  0.8147462221318946  0.6295819036629240  0.1128569630617022
  0.7777081922884577  0.6666181549794459  0.1130808579926921
  0.8147558095093004  0.7406969451231618  0.1130117308892054
  0.7777141381796113  0.7777293082430106  0.1131068527376158
  0.8147664406587012  0.8517997771950974  0.1129531776066415
  0.7777283269871589  0.8888341541431757  0.1129598677692201
  0.8147874236275854  0.9629211550984564  0.1127760707239815
  0.8888743536670347  0.9999856198903672  0.1126715328013503
  0.9259294051723543  0.0740675415705070  0.1126226599070250
  0.8888896975879135  0.1111090588204320  0.1125940587506307
  0.9259408321112588  0.1851927489079372  0.1126203422360632
  0.8888936758458996  0.2222270481410433  0.1126393488447519
  0.9259380989070323  0.2963069254302368  0.1126953807275797
  0.8888790779589826  0.3333379794473927  0.1127276522422704
  0.9259167571764166  0.4074078726774388  0.1127593038391197
  0.8888498752487806  0.4444350691573291  0.1127051990325043
  0.9259012840915091  0.5185097771322376  0.1127411044069220
  0.8888279339665530  0.5555225491732116  0.1126736851660368
  0.9258877709512419  0.6296061280293941  0.1127233644916785
  0.8888338329546528  0.6666339058453374  0.1127579685728648
  0.9258870710803535  0.7407134110190512  0.1127103155815377
  0.8888382133077499  0.7777464504909659  0.1127886758539702
  0.9258994131510860  0.8518298043487391  0.1127012520925845
  0.8888522394309462  0.8888616667302784  0.1127625649781336
  0.9259163081004971  0.9629480708646696  0.1126781384069560
  0.2671546227397812  0.1337487466947493  0.3755032920648276
  0.3364658284133242  0.1872318948933653  0.3683212963031437
  0.3492710034487843  0.2556837702638575  0.3627746978406279
  0.2942002062900926  0.2701625810702524  0.3637375943042542
  0.2248091610972125  0.2166546009497594  0.3705301538262233
  0.2120050157057776  0.1482797086574834  0.3766565749735378
  0.3260282038209965  0.3456683174042610  0.3581693490134228
  0.4134721585432644  0.3227327108982294  0.3571289132408211
  0.3183720041226863  0.4458915620186801  0.3513141791324870
  0.3952631691344806  0.5601144233294590  0.3528500181760066
  0.2780564373845422  0.4813102212983864  0.3453334290893011
  0.3264837234112363  0.5532759951287716  0.3467347558907221
  0.3046643546168823  0.6025267336502083  0.3420079673134069
  0.2331679361094388  0.5778491267346766  0.3351474340853997
  0.1846787994971919  0.5057611198702077  0.3332282477682043
  0.2064838701689169  0.4565849329909284  0.3384985490244574
  0.5336458595656097  0.3896001549551613  0.3512817336105343
  0.6105098429535190  0.5037479997633909  0.3562591958625987
  0.6245886298911145  0.3476904392725686  0.3387409568282678
  0.6962698718386520  0.3726258457886757  0.3346470039034699
  0.7447814981328875  0.4446192575077390  0.3390275644729286
  0.7227719879965306  0.4934762261929535  0.3471911774105436
  0.6510066193588315  0.4685118076164585  0.3505743545782423
  0.6025766963123687  0.3966125110476568  0.3467368942233122
  0.6027434421896913  0.6038983567991068  0.3633672435376312
  0.5153708404750716  0.6268882734721117  0.3604631593338397
  0.6346214369767651  0.6794728434182602  0.3673144446574099
  0.7041129401855386  0.7331076470036919  0.3716906669467193
  0.7170936435521753  0.8016890625282755  0.3734139665764360
  0.6619953173551920  0.8162566404254079  0.3706591585721526
  0.5925547983885977  0.7626095006504272  0.3665295515937075
  0.5796002713669495  0.6939856140394411  0.3650208781544819
  0.3982043204483716  0.3764387141354391  0.3560258300612134
  0.2886337622857411  0.3771165053900134  0.3543016062824051
  0.3891351290929492  0.4945411234862220  0.3545093082890460
  0.4756978052670462  0.3281581389516504  0.3530414659048873
  0.5397107351029788  0.4550995351697935  0.3553338472959098
  0.6401739860817273  0.5724385772275866  0.3611426974658585
  0.5305982498666637  0.5731498528609720  0.3600023395577807
  0.4531753474715146  0.6215094729422006  0.3562184514634055
  0.2553203433187434  0.0798763553685689  0.3809594743223528
  0.3792530422405846  0.1763789948095962  0.3678125019938321
  0.1825477787993961  0.2282763179614378  0.3718013114043472
  0.1586346506274978  0.1053614248577759  0.3829696567395899
  0.3423712072254119  0.6580514050902480  0.3434613724238886
  0.2143522402049101  0.6147367888375186  0.3307778376102775
  0.1293760885684350  0.4883689625337979  0.3271465277313581
  0.1693847832036397  0.4009086827576382  0.3369635410993439
  0.5868958189906124  0.2922465908459984  0.3350557591783385
  0.7152255949791169  0.3360450713461844  0.3273445607722181
  0.8002713423134580  0.4622337681994679  0.3354505821108731
  0.7598508917031310  0.5491092194295533  0.3503626937210242
  0.7463454116692958  0.7214669798853492  0.3738455762583612
  0.7705891888995993  0.8447690808940820  0.3771007685994689
  0.6740092231362880  0.8703359819779592  0.3719258588079839
  0.5498122313822336  0.7734977831900736  0.3645490716899218
  0.4644114636529579  0.4747999976323669  0.3562288218015297
 
  0.00000000E+00  0.00000000E+00  0.00000000E+00
  0.00000000E+00  0.00000000E+00  0.00000000E+00
  0.00000000E+00  0.00000000E+00  0.00000000E+00
  0.00000000E+00  0.00000000E+00  0.00000000E+00
  0.00000000E+00  0.00000000E+00  0.00000000E+00
  0.00000000E+00  0.00000000E+00  0.00000000E+00
  0.00000000E+00  0.00000000E+00  0.00000000E+00
  0.00000000E+00  0.00000000E+00  0.00000000E+00
  0.00000000E+00  0.00000000E+00  0.00000000E+00
  0.00000000E+00  0.00000000E+00  0.00000000E+00
  0.00000000E+00  0.00000000E+00  0.00000000E+00
  0.00000000E+00  0.00000000E+00  0.00000000E+00
  0.00000000E+00  0.00000000E+00  0.00000000E+00
  0.00000000E+00  0.00000000E+00  0.00000000E+00
  0.00000000E+00  0.00000000E+00  0.00000000E+00
  0.00000000E+00  0.00000000E+00  0.00000000E+00
  0.00000000E+00  0.00000000E+00  0.00000000E+00
  0.00000000E+00  0.00000000E+00  0.00000000E+00
  0.00000000E+00  0.00000000E+00  0.00000000E+00
  0.00000000E+00  0.00000000E+00  0.00000000E+00
  0.00000000E+00  0.00000000E+00  0.00000000E+00
  0.00000000E+00  0.00000000E+00  0.00000000E+00
  0.00000000E+00  0.00000000E+00  0.00000000E+00
  0.00000000E+00  0.00000000E+00  0.00000000E+00
  0.00000000E+00  0.00000000E+00  0.00000000E+00
  0.00000000E+00  0.00000000E+00  0.00000000E+00
  0.00000000E+00  0.00000000E+00  0.00000000E+00
  0.00000000E+00  0.00000000E+00  0.00000000E+00
  0.00000000E+00  0.00000000E+00  0.00000000E+00
  0.00000000E+00  0.00000000E+00  0.00000000E+00
  0.00000000E+00  0.00000000E+00  0.00000000E+00
  0.00000000E+00  0.00000000E+00  0.00000000E+00
  0.00000000E+00  0.00000000E+00  0.00000000E+00
  0.00000000E+00  0.00000000E+00  0.00000000E+00
  0.00000000E+00  0.00000000E+00  0.00000000E+00
  0.00000000E+00  0.00000000E+00  0.00000000E+00
  0.00000000E+00  0.00000000E+00  0.00000000E+00
  0.00000000E+00  0.00000000E+00  0.00000000E+00
  0.00000000E+00  0.00000000E+00  0.00000000E+00
  0.00000000E+00  0.00000000E+00  0.00000000E+00
  0.00000000E+00  0.00000000E+00  0.00000000E+00
  0.00000000E+00  0.00000000E+00  0.00000000E+00
  0.00000000E+00  0.00000000E+00  0.00000000E+00
  0.00000000E+00  0.00000000E+00  0.00000000E+00
  0.00000000E+00  0.00000000E+00  0.00000000E+00
  0.00000000E+00  0.00000000E+00  0.00000000E+00
  0.00000000E+00  0.00000000E+00  0.00000000E+00
  0.00000000E+00  0.00000000E+00  0.00000000E+00
  0.00000000E+00  0.00000000E+00  0.00000000E+00
  0.00000000E+00  0.00000000E+00  0.00000000E+00
  0.00000000E+00  0.00000000E+00  0.00000000E+00
  0.00000000E+00  0.00000000E+00  0.00000000E+00
  0.00000000E+00  0.00000000E+00  0.00000000E+00
  0.00000000E+00  0.00000000E+00  0.00000000E+00
  0.00000000E+00  0.00000000E+00  0.00000000E+00
  0.00000000E+00  0.00000000E+00  0.00000000E+00
  0.00000000E+00  0.00000000E+00  0.00000000E+00
  0.00000000E+00  0.00000000E+00  0.00000000E+00
  0.00000000E+00  0.00000000E+00  0.00000000E+00
  0.00000000E+00  0.00000000E+00  0.00000000E+00
  0.00000000E+00  0.00000000E+00  0.00000000E+00
  0.00000000E+00  0.00000000E+00  0.00000000E+00
  0.00000000E+00  0.00000000E+00  0.00000000E+00
  0.00000000E+00  0.00000000E+00  0.00000000E+00
  0.00000000E+00  0.00000000E+00  0.00000000E+00
  0.00000000E+00  0.00000000E+00  0.00000000E+00
  0.00000000E+00  0.00000000E+00  0.00000000E+00
  0.00000000E+00  0.00000000E+00  0.00000000E+00
  0.00000000E+00  0.00000000E+00  0.00000000E+00
  0.00000000E+00  0.00000000E+00  0.00000000E+00
  0.00000000E+00  0.00000000E+00  0.00000000E+00
  0.00000000E+00  0.00000000E+00  0.00000000E+00
  0.00000000E+00  0.00000000E+00  0.00000000E+00
  0.00000000E+00  0.00000000E+00  0.00000000E+00
  0.00000000E+00  0.00000000E+00  0.00000000E+00
  0.00000000E+00  0.00000000E+00  0.00000000E+00
  0.00000000E+00  0.00000000E+00  0.00000000E+00
  0.00000000E+00  0.00000000E+00  0.00000000E+00
  0.00000000E+00  0.00000000E+00  0.00000000E+00
  0.00000000E+00  0.00000000E+00  0.00000000E+00
  0.00000000E+00  0.00000000E+00  0.00000000E+00
  0.00000000E+00  0.00000000E+00  0.00000000E+00
  0.00000000E+00  0.00000000E+00  0.00000000E+00
  0.00000000E+00  0.00000000E+00  0.00000000E+00
  0.00000000E+00  0.00000000E+00  0.00000000E+00
  0.00000000E+00  0.00000000E+00  0.00000000E+00
  0.00000000E+00  0.00000000E+00  0.00000000E+00
  0.00000000E+00  0.00000000E+00  0.00000000E+00
  0.00000000E+00  0.00000000E+00  0.00000000E+00
  0.00000000E+00  0.00000000E+00  0.00000000E+00
  0.00000000E+00  0.00000000E+00  0.00000000E+00
  0.00000000E+00  0.00000000E+00  0.00000000E+00
  0.00000000E+00  0.00000000E+00  0.00000000E+00
  0.00000000E+00  0.00000000E+00  0.00000000E+00
  0.00000000E+00  0.00000000E+00  0.00000000E+00
  0.00000000E+00  0.00000000E+00  0.00000000E+00
  0.00000000E+00  0.00000000E+00  0.00000000E+00
  0.00000000E+00  0.00000000E+00  0.00000000E+00
  0.00000000E+00  0.00000000E+00  0.00000000E+00
  0.00000000E+00  0.00000000E+00  0.00000000E+00
  0.00000000E+00  0.00000000E+00  0.00000000E+00
  0.00000000E+00  0.00000000E+00  0.00000000E+00
  0.00000000E+00  0.00000000E+00  0.00000000E+00
  0.00000000E+00  0.00000000E+00  0.00000000E+00
  0.00000000E+00  0.00000000E+00  0.00000000E+00
  0.00000000E+00  0.00000000E+00  0.00000000E+00
  0.00000000E+00  0.00000000E+00  0.00000000E+00
  0.00000000E+00  0.00000000E+00  0.00000000E+00
  0.00000000E+00  0.00000000E+00  0.00000000E+00
  0.00000000E+00  0.00000000E+00  0.00000000E+00
  0.00000000E+00  0.00000000E+00  0.00000000E+00
  0.00000000E+00  0.00000000E+00  0.00000000E+00
  0.00000000E+00  0.00000000E+00  0.00000000E+00
  0.00000000E+00  0.00000000E+00  0.00000000E+00
  0.00000000E+00  0.00000000E+00  0.00000000E+00
  0.00000000E+00  0.00000000E+00  0.00000000E+00
  0.00000000E+00  0.00000000E+00  0.00000000E+00
  0.00000000E+00  0.00000000E+00  0.00000000E+00
  0.00000000E+00  0.00000000E+00  0.00000000E+00
  0.00000000E+00  0.00000000E+00  0.00000000E+00
  0.00000000E+00  0.00000000E+00  0.00000000E+00
  0.00000000E+00  0.00000000E+00  0.00000000E+00
  0.00000000E+00  0.00000000E+00  0.00000000E+00
  0.00000000E+00  0.00000000E+00  0.00000000E+00
  0.00000000E+00  0.00000000E+00  0.00000000E+00
  0.00000000E+00  0.00000000E+00  0.00000000E+00
  0.00000000E+00  0.00000000E+00  0.00000000E+00
  0.00000000E+00  0.00000000E+00  0.00000000E+00
  0.00000000E+00  0.00000000E+00  0.00000000E+00
  0.00000000E+00  0.00000000E+00  0.00000000E+00
  0.00000000E+00  0.00000000E+00  0.00000000E+00
  0.00000000E+00  0.00000000E+00  0.00000000E+00
  0.00000000E+00  0.00000000E+00  0.00000000E+00
  0.00000000E+00  0.00000000E+00  0.00000000E+00
  0.00000000E+00  0.00000000E+00  0.00000000E+00
  0.00000000E+00  0.00000000E+00  0.00000000E+00
  0.00000000E+00  0.00000000E+00  0.00000000E+00
  0.00000000E+00  0.00000000E+00  0.00000000E+00
  0.00000000E+00  0.00000000E+00  0.00000000E+00
  0.00000000E+00  0.00000000E+00  0.00000000E+00
  0.00000000E+00  0.00000000E+00  0.00000000E+00
  0.00000000E+00  0.00000000E+00  0.00000000E+00
  0.00000000E+00  0.00000000E+00  0.00000000E+00
  0.00000000E+00  0.00000000E+00  0.00000000E+00
  0.00000000E+00  0.00000000E+00  0.00000000E+00
  0.00000000E+00  0.00000000E+00  0.00000000E+00
  0.00000000E+00  0.00000000E+00  0.00000000E+00
  0.00000000E+00  0.00000000E+00  0.00000000E+00
  0.00000000E+00  0.00000000E+00  0.00000000E+00
  0.00000000E+00  0.00000000E+00  0.00000000E+00
  0.00000000E+00  0.00000000E+00  0.00000000E+00
  0.00000000E+00  0.00000000E+00  0.00000000E+00
  0.00000000E+00  0.00000000E+00  0.00000000E+00
  0.00000000E+00  0.00000000E+00  0.00000000E+00
  0.00000000E+00  0.00000000E+00  0.00000000E+00
  0.00000000E+00  0.00000000E+00  0.00000000E+00
  0.00000000E+00  0.00000000E+00  0.00000000E+00
  0.00000000E+00  0.00000000E+00  0.00000000E+00
  0.00000000E+00  0.00000000E+00  0.00000000E+00
  0.00000000E+00  0.00000000E+00  0.00000000E+00
  0.00000000E+00  0.00000000E+00  0.00000000E+00
  0.00000000E+00  0.00000000E+00  0.00000000E+00
  0.00000000E+00  0.00000000E+00  0.00000000E+00
  0.00000000E+00  0.00000000E+00  0.00000000E+00
  0.00000000E+00  0.00000000E+00  0.00000000E+00
  0.00000000E+00  0.00000000E+00  0.00000000E+00
  0.00000000E+00  0.00000000E+00  0.00000000E+00
  0.00000000E+00  0.00000000E+00  0.00000000E+00
  0.00000000E+00  0.00000000E+00  0.00000000E+00
  0.00000000E+00  0.00000000E+00  0.00000000E+00
  0.00000000E+00  0.00000000E+00  0.00000000E+00
  0.00000000E+00  0.00000000E+00  0.00000000E+00
  0.00000000E+00  0.00000000E+00  0.00000000E+00
  0.00000000E+00  0.00000000E+00  0.00000000E+00
  0.00000000E+00  0.00000000E+00  0.00000000E+00
  0.00000000E+00  0.00000000E+00  0.00000000E+00
  0.00000000E+00  0.00000000E+00  0.00000000E+00
  0.00000000E+00  0.00000000E+00  0.00000000E+00
  0.00000000E+00  0.00000000E+00  0.00000000E+00
  0.00000000E+00  0.00000000E+00  0.00000000E+00
  0.00000000E+00  0.00000000E+00  0.00000000E+00
  0.00000000E+00  0.00000000E+00  0.00000000E+00
  0.00000000E+00  0.00000000E+00  0.00000000E+00
  0.00000000E+00  0.00000000E+00  0.00000000E+00
  0.00000000E+00  0.00000000E+00  0.00000000E+00
  0.00000000E+00  0.00000000E+00  0.00000000E+00
  0.00000000E+00  0.00000000E+00  0.00000000E+00
  0.00000000E+00  0.00000000E+00  0.00000000E+00
  0.00000000E+00  0.00000000E+00  0.00000000E+00
  0.00000000E+00  0.00000000E+00  0.00000000E+00
  0.00000000E+00  0.00000000E+00  0.00000000E+00
  0.00000000E+00  0.00000000E+00  0.00000000E+00
  0.00000000E+00  0.00000000E+00  0.00000000E+00
  0.00000000E+00  0.00000000E+00  0.00000000E+00
  0.00000000E+00  0.00000000E+00  0.00000000E+00
  0.00000000E+00  0.00000000E+00  0.00000000E+00
  0.00000000E+00  0.00000000E+00  0.00000000E+00
  0.00000000E+00  0.00000000E+00  0.00000000E+00
  0.00000000E+00  0.00000000E+00  0.00000000E+00
  0.00000000E+00  0.00000000E+00  0.00000000E+00
  0.00000000E+00  0.00000000E+00  0.00000000E+00
  0.00000000E+00  0.00000000E+00  0.00000000E+00
  0.00000000E+00  0.00000000E+00  0.00000000E+00
  0.00000000E+00  0.00000000E+00  0.00000000E+00
  0.00000000E+00  0.00000000E+00  0.00000000E+00
  0.00000000E+00  0.00000000E+00  0.00000000E+00
  0.00000000E+00  0.00000000E+00  0.00000000E+00
  0.00000000E+00  0.00000000E+00  0.00000000E+00
  0.00000000E+00  0.00000000E+00  0.00000000E+00
  0.00000000E+00  0.00000000E+00  0.00000000E+00
  0.00000000E+00  0.00000000E+00  0.00000000E+00
  0.00000000E+00  0.00000000E+00  0.00000000E+00
  0.00000000E+00  0.00000000E+00  0.00000000E+00
  0.00000000E+00  0.00000000E+00  0.00000000E+00
  0.00000000E+00  0.00000000E+00  0.00000000E+00
  0.00000000E+00  0.00000000E+00  0.00000000E+00
  0.00000000E+00  0.00000000E+00  0.00000000E+00
  0.00000000E+00  0.00000000E+00  0.00000000E+00
  0.00000000E+00  0.00000000E+00  0.00000000E+00
