C194N8H16Fe1                            
   1.00000000000000     
    22.2455737962550870    0.0000000000000000    0.0000000000000000
   -11.1246025540673621   19.2641836457885951    0.0000000000000000
     0.0000000000000010    0.0000000000000017   15.9859682076470033
   C    N    H    Cu
   194     8    16     1
Direct
  0.0000008110751182  0.0000051876144767  0.1126836332842913
  0.0370630787063320  0.0740904928812469  0.1127796184374503
  0.0000141170084689  0.1111229757974144  0.1127115089372097
  0.0370717448252336  0.1852027339630951  0.1127818134051140
  0.0000221672269234  0.2222362022871209  0.1126925185461687
  0.0370763377220769  0.2963156602465133  0.1126757687220490
  0.0000206373631357  0.3333429126784324  0.1126591269461059
  0.0370797456044087  0.4074241761617259  0.1125679552992480
  0.0000075764336955  0.4444418877852669  0.1126953533389496
  0.0370549646130627  0.5185156687194521  0.1126682819194755
  0.9999922394279324  0.5555447419801354  0.1127550236980639
  0.0370317798478439  0.6296175607389216  0.1127144316532451
  0.9999764031531910  0.6666493138647169  0.1126931690192308
  0.0370225688249306  0.7407275278554124  0.1126243223648160
  0.9999751150838208  0.7777646833502274  0.1126117262710977
  0.0370278020560093  0.8518452574373612  0.1125912579951063
  0.9999857436118589  0.8888846589614374  0.1126190324901444
  0.0370438597055553  0.9629692074578742  0.1126801935723023
  0.1111278827215898  0.0000315367638350  0.1128035165741750
  0.1481851448576208  0.0741134538682715  0.1130015310250130
  0.1111452265499437  0.1111475647158784  0.1129875988045086
  0.1481974805083510  0.1852214273089956  0.1131280485252262
  0.1111551218752922  0.2222532939196284  0.1129870957744856
  0.1482045627317490  0.2963301489152244  0.1129473835839505
  0.1111628716181627  0.3333699095697327  0.1126671403631505
  0.1482072587938745  0.4074373748285325  0.1123310768881964
  0.1111648961402594  0.4444620989139878  0.1122428606064574
  0.1482053853528669  0.5185191828080207  0.1120319019862137
  0.1111433993086948  0.5555345162040055  0.1124216533181297
  0.1481695061792365  0.6296102314290337  0.1125378252077809
  0.1111166025115082  0.6666507462087665  0.1126710297342015
  0.1481485503128681  0.7407277228682219  0.1126334753524674
  0.1111030528385797  0.7777699584037947  0.1126041545361574
  0.1481451385107277  0.8518497356292301  0.1125984927088624
  0.1111089136448413  0.8888962598872325  0.1126161673121473
  0.1481581352201076  0.9629817764013353  0.1127515312959204
  0.2222367411361006  0.0000401966938952  0.1128419757705856
  0.2592740246626235  0.0741232888789440  0.1130419334628741
  0.2222524916254898  0.1111668946581190  0.1131542888979453
  0.2592886785459498  0.1852308647435521  0.1133560891114982
  0.2222611693683021  0.2222642832378199  0.1133468616864235
  0.2592821634210694  0.2963225911953202  0.1134735655596373
  0.2222636206983069  0.3333686262536304  0.1131605251460499
  0.2592760290413239  0.4074245127150320  0.1129799202367892
  0.2222626567128287  0.4444674097160188  0.1123666209627601
  0.2592821377169230  0.5185143567881809  0.1121477517428389
  0.2222568538670870  0.5555361764302802  0.1118480925771692
  0.2592769714034517  0.6295800137290328  0.1120439390775587
  0.2222486080445734  0.6666277093195987  0.1123768217557242
  0.2592659955025098  0.7407103059696425  0.1125692062845687
  0.2222266235350148  0.7777623330046453  0.1126206868852435
  0.2592614771620205  0.8518446808623068  0.1126160421272928
  0.2222239931637802  0.8888957847001180  0.1126267584745122
  0.2592622076544089  0.9629798900661726  0.1127253764204212
  0.3333375256734286  0.0000231082954798  0.1127397599674538
  0.3703686065807972  0.0741096003836859  0.1128824232129517
  0.3333419775071036  0.1111654810044058  0.1130639468512484
  0.3703741124447646  0.1852344045686394  0.1132152985517152
  0.3333391169344821  0.2222583101421662  0.1134384038691252
  0.3703776285748290  0.2963189230768606  0.1136944068596932
  0.3333401425069979  0.3333496845923634  0.1137937425866653
  0.3703633955013004  0.4074095173571521  0.1139751721883471
  0.3333331765859882  0.4444520991169441  0.1135138542077456
  0.3703648061511942  0.5185114408930644  0.1133874386455531
  0.3333272777855356  0.5555368007496355  0.1126624951743551
  0.3703722136793957  0.6295862268445589  0.1126610450895811
  0.3333323523402925  0.6666081492583089  0.1123755337296188
  0.3703671457312083  0.7406843052768224  0.1126455432816229
  0.3333411561286397  0.7777482319120992  0.1126177820655414
  0.3703708031994637  0.8518305836598614  0.1126404789395252
  0.3333350891160194  0.8888847408215028  0.1126157316603980
  0.3703686606976504  0.9629662989939973  0.1126418137329637
  0.4444409356151553  0.0000063931856928  0.1126290934327443
  0.4814713209405355  0.0740871588001042  0.1126764300706213
  0.4444422923093754  0.1111474047539431  0.1128162962148735
  0.4814701786246687  0.1852295504155350  0.1128272966242747
  0.4444374392565180  0.2222707624640918  0.1130406462074873
  0.4814844802149736  0.2963316063531067  0.1130639786112440
  0.4444419686337966  0.3333473015738093  0.1135717448531182
  0.4814770292508470  0.4073999394902330  0.1138675541203895
  0.4444347198456597  0.4444376691954375  0.1142102991674392
  0.4814722117326937  0.5185084911303619  0.1142005873345653
  0.4444316340998427  0.5555435220436209  0.1138374979686816
  0.4814716660215907  0.6296000800851473  0.1135710151419218
  0.4444270587908150  0.6666128434766492  0.1131243431308064
  0.4814732198776639  0.7406777813053083  0.1130836676234850
  0.4444422002010811  0.7777251266982006  0.1128650858722153
  0.4814712517132733  0.8518089734934051  0.1128086412238645
  0.4444423464386489  0.8888678850231102  0.1126700684729656
  0.4814745008931993  0.9629502204655296  0.1126237422885126
  0.5555456143800939  0.9999896563809116  0.1126320486550583
  0.5925781715291265  0.0740705016046732  0.1126118462820997
  0.5555432731497802  0.1111243915799491  0.1126333098438508
  0.5925725189519753  0.1852078763507592  0.1125727776711685
  0.5555459336623727  0.2222716719262152  0.1125587832203792
  0.5925808001435229  0.2963410005628972  0.1122478946368375
  0.5555348253207484  0.3333566488654469  0.1125982508267711
  0.5925783370020099  0.4074054513393079  0.1127530655600637
  0.5555445767911706  0.4444341380547385  0.1134806907112420
  0.5925749647443226  0.5184954288930044  0.1136608249685125
  0.5555459003274308  0.5555384653369373  0.1140245906544806
  0.5925702182086496  0.6295981926478902  0.1138173280428987
  0.5555328777819000  0.6666287152033235  0.1136727996183282
  0.5925738444986237  0.7406886513840831  0.1134046514634761
  0.5555410490431925  0.7777143965582738  0.1132171028256792
  0.5925721531296873  0.8517884292283426  0.1130512114843611
  0.5555458569965666  0.8888479243074556  0.1128615285005239
  0.5925765418931448  0.9629316956042189  0.1127190721082414
  0.6666532535760084  0.9999761072046809  0.1127049282084371
  0.7036916674999532  0.0740610619124311  0.1126226613519918
  0.6666536591648935  0.1111114782986533  0.1126151977892960
  0.7036865972259676  0.1851925763900582  0.1126111386104682
  0.6666460669591672  0.2222459738083913  0.1125133087585155
  0.7036623964305804  0.2963276599613991  0.1122861436896017
  0.6666317786133078  0.3333671335794577  0.1119513107155186
  0.7036583992988525  0.4074107088130958  0.1119567194790108
  0.6666311933328615  0.4444327025023256  0.1123836456207741
  0.7036508155821863  0.5184796118234019  0.1127262792429775
  0.6666337266463671  0.5555254545026358  0.1132525959971105
  0.7036495656811468  0.6295833010998919  0.1133353815549754
  0.6666301952726457  0.6666287056357874  0.1135295603754329
  0.7036557064713023  0.7406893089687756  0.1133341638075578
  0.6666266598290989  0.7777194636157105  0.1133060475644783
  0.7036634151451153  0.8517826873144116  0.1131071361361080
  0.6666429837800365  0.8888314523861851  0.1130139231672729
  0.7036800525169724  0.9629173247636871  0.1128144229485173
  0.7777605693612628  0.9999749560864188  0.1127262774166198
  0.8148080505938751  0.0740595676645270  0.1126068428123901
  0.7777695735204375  0.1111053105014577  0.1125980479215372
  0.8148107240544391  0.1851853443546219  0.1126184922576385
  0.7777643166243848  0.2222253247206751  0.1126388372584159
  0.8147959418874962  0.2963057818206423  0.1126766306814844
  0.7777395430162954  0.3333438925566767  0.1125176565371007
  0.8147679080598138  0.4074170961081478  0.1124668680625831
  0.7777052014551913  0.4444305404893143  0.1121756874610327
  0.8147489261930545  0.5184852055164342  0.1124716599327797
  0.7777084339989671  0.5555135388757577  0.1126610265821952
  0.8147544670051587  0.6295848689305785  0.1128668776484645
  0.7777130422528202  0.6666233170657136  0.1130899534857051
  0.8147604027096236  0.7406990246950400  0.1130204806801203
  0.7777167792161492  0.7777299429697848  0.1131177653996289
  0.8147714355689928  0.8518048117336221  0.1129614869210016
  0.7777322600615335  0.8888382044038394  0.1129684323467899
  0.8147910338515629  0.9629247514603705  0.1127791911530522
  0.8888733989700057  0.9999850286774219  0.1126712342976646
  0.9259302672905108  0.0740696419529101  0.1126208856682425
  0.8888887351419044  0.1111085281672715  0.1125914168093445
  0.9259403730977738  0.1851903072998127  0.1126175494516275
  0.8888915772064436  0.2222259743150801  0.1126358764575528
  0.9259349770242622  0.2963030756507194  0.1126929129570655
  0.8888786901701948  0.3333339866480642  0.1127252641851229
  0.9259181552004989  0.4074082649425605  0.1127573876927670
  0.8888543089213030  0.4444346224406743  0.1127065632170812
  0.9259049754130970  0.5185106804751527  0.1127414052810920
  0.8888331693127327  0.5555284339435218  0.1126816720912416
  0.9258913133620723  0.6296062627443320  0.1127250144390644
  0.8888367907126096  0.6666369288486536  0.1127613823768456
  0.9258923420647207  0.7407166276697410  0.1127105379473079
  0.8888430329339130  0.7777486136915854  0.1127918791806906
  0.9259035995319138  0.8518317400015505  0.1127014968944025
  0.8888545181848073  0.8888632215533363  0.1127649854420554
  0.9259161372171434  0.9629481085042073  0.1126781123899505
  0.2668859137080517  0.1333847243553379  0.3755932893452467
  0.3361868736234825  0.1867186182070952  0.3684056509453129
  0.3488196348819841  0.2549417815705297  0.3628244865889840
  0.2936646093157549  0.2694433302004029  0.3637682347942928
  0.2244181369354905  0.2161706072913674  0.3706020988303109
  0.2117798835796236  0.1479052458449317  0.3767447928097525
  0.3253974418555998  0.3449063190533579  0.3579858848471602
  0.4130425438972125  0.3219219017166211  0.3569674337796229
  0.3176612079090333  0.4459035198720755  0.3514280600546442
  0.3947570528550628  0.5604245659629399  0.3529184084431378
  0.2774627506393159  0.4814130861355395  0.3453069816102570
  0.3259505684057160  0.5534699234008471  0.3466623431428957
  0.3043377996095984  0.6027101029518604  0.3419608588080223
  0.2328532422795675  0.5778817921449786  0.3351397982487541
  0.1844211263738558  0.5058744807181910  0.3332219881083134
  0.2060433015615146  0.4566027093784655  0.3384620534531138
  0.5341480785659698  0.3892861251998099  0.3513765481566651
  0.6112185947855409  0.5037397379529338  0.3562895251033567
  0.6249161562737626  0.3475078247624026  0.3387353732320548
  0.6965827252716039  0.3725882737083595  0.3346486662584311
  0.7450386280440995  0.4445065526774243  0.3390295797401208
  0.7232107075156975  0.4934548752085206  0.3471741483963768
  0.6516009905287419  0.4684118780642095  0.3505530720542609
  0.6031120882021952  0.3964142126805683  0.3467578119730277
  0.6033764720382635  0.6046621055519878  0.3633112725608214
  0.5157959679295772  0.6277051809417671  0.3604321561677537
  0.6351580469352811  0.6801972910623348  0.3673358490389305
  0.7045118498554857  0.7336026739683348  0.3717358013848795
  0.7173206230557767  0.8020659656015923  0.3734754449351030
  0.6622698967131484  0.8166288753726789  0.3707208180670207
  0.5928366467216648  0.7631293636421290  0.3665668844325012
  0.5800561083485789  0.6947383472811595  0.3650405051151182
  0.3969027007849490  0.3745068717220263  0.3554540657009113
  0.2884074921912969  0.3770068671542646  0.3543691602357697
  0.3876633532163751  0.4949266325972275  0.3548981701205705
  0.4757248054021801  0.3279758040155940  0.3531090641619130
  0.5411688065778009  0.4547066473282229  0.3555814954657350
  0.6403951619441415  0.5725531591114930  0.3611830593266987
  0.5318933392383514  0.5750762628081816  0.3599712580792129
  0.4531467401683713  0.6216915605799826  0.3562892723513258
  0.2551119664250265  0.0795997871468543  0.3809066961392844
  0.3791302300080304  0.1761595547148502  0.3677506809502944
  0.1823804039509938  0.2280670201957378  0.3717312965248283
  0.1584650408268260  0.1050753548254733  0.3829235781036715
  0.3422358297149515  0.6581324136013151  0.3433411661532588
  0.2141256294745162  0.6147635833223504  0.3306771936433819
  0.1291864967289413  0.4884507872314927  0.3270492512329994
  0.1691979425160000  0.4009141268917418  0.3368624312212418
  0.5870370838062016  0.2921687400254527  0.3349644862128116
  0.7154524795014794  0.3360214788108351  0.3272367626734933
  0.8004640184352283  0.4621547544753568  0.3353420762926120
  0.7600402410516480  0.5491076905781753  0.3502568991817441
  0.7465139037265018  0.7216768535839222  0.3737690009848151
  0.7707597233724499  0.8450559316118529  0.3770386336258298
  0.6742173055698473  0.8706102112499821  0.3718744911634886
  0.5499354080013745  0.7737178590563047  0.3644739120246925
  0.4644177605554631  0.4748222547031560  0.3558734099231131
 
  0.00000000E+00  0.00000000E+00  0.00000000E+00
  0.00000000E+00  0.00000000E+00  0.00000000E+00
  0.00000000E+00  0.00000000E+00  0.00000000E+00
  0.00000000E+00  0.00000000E+00  0.00000000E+00
  0.00000000E+00  0.00000000E+00  0.00000000E+00
  0.00000000E+00  0.00000000E+00  0.00000000E+00
  0.00000000E+00  0.00000000E+00  0.00000000E+00
  0.00000000E+00  0.00000000E+00  0.00000000E+00
  0.00000000E+00  0.00000000E+00  0.00000000E+00
  0.00000000E+00  0.00000000E+00  0.00000000E+00
  0.00000000E+00  0.00000000E+00  0.00000000E+00
  0.00000000E+00  0.00000000E+00  0.00000000E+00
  0.00000000E+00  0.00000000E+00  0.00000000E+00
  0.00000000E+00  0.00000000E+00  0.00000000E+00
  0.00000000E+00  0.00000000E+00  0.00000000E+00
  0.00000000E+00  0.00000000E+00  0.00000000E+00
  0.00000000E+00  0.00000000E+00  0.00000000E+00
  0.00000000E+00  0.00000000E+00  0.00000000E+00
  0.00000000E+00  0.00000000E+00  0.00000000E+00
  0.00000000E+00  0.00000000E+00  0.00000000E+00
  0.00000000E+00  0.00000000E+00  0.00000000E+00
  0.00000000E+00  0.00000000E+00  0.00000000E+00
  0.00000000E+00  0.00000000E+00  0.00000000E+00
  0.00000000E+00  0.00000000E+00  0.00000000E+00
  0.00000000E+00  0.00000000E+00  0.00000000E+00
  0.00000000E+00  0.00000000E+00  0.00000000E+00
  0.00000000E+00  0.00000000E+00  0.00000000E+00
  0.00000000E+00  0.00000000E+00  0.00000000E+00
  0.00000000E+00  0.00000000E+00  0.00000000E+00
  0.00000000E+00  0.00000000E+00  0.00000000E+00
  0.00000000E+00  0.00000000E+00  0.00000000E+00
  0.00000000E+00  0.00000000E+00  0.00000000E+00
  0.00000000E+00  0.00000000E+00  0.00000000E+00
  0.00000000E+00  0.00000000E+00  0.00000000E+00
  0.00000000E+00  0.00000000E+00  0.00000000E+00
  0.00000000E+00  0.00000000E+00  0.00000000E+00
  0.00000000E+00  0.00000000E+00  0.00000000E+00
  0.00000000E+00  0.00000000E+00  0.00000000E+00
  0.00000000E+00  0.00000000E+00  0.00000000E+00
  0.00000000E+00  0.00000000E+00  0.00000000E+00
  0.00000000E+00  0.00000000E+00  0.00000000E+00
  0.00000000E+00  0.00000000E+00  0.00000000E+00
  0.00000000E+00  0.00000000E+00  0.00000000E+00
  0.00000000E+00  0.00000000E+00  0.00000000E+00
  0.00000000E+00  0.00000000E+00  0.00000000E+00
  0.00000000E+00  0.00000000E+00  0.00000000E+00
  0.00000000E+00  0.00000000E+00  0.00000000E+00
  0.00000000E+00  0.00000000E+00  0.00000000E+00
  0.00000000E+00  0.00000000E+00  0.00000000E+00
  0.00000000E+00  0.00000000E+00  0.00000000E+00
  0.00000000E+00  0.00000000E+00  0.00000000E+00
  0.00000000E+00  0.00000000E+00  0.00000000E+00
  0.00000000E+00  0.00000000E+00  0.00000000E+00
  0.00000000E+00  0.00000000E+00  0.00000000E+00
  0.00000000E+00  0.00000000E+00  0.00000000E+00
  0.00000000E+00  0.00000000E+00  0.00000000E+00
  0.00000000E+00  0.00000000E+00  0.00000000E+00
  0.00000000E+00  0.00000000E+00  0.00000000E+00
  0.00000000E+00  0.00000000E+00  0.00000000E+00
  0.00000000E+00  0.00000000E+00  0.00000000E+00
  0.00000000E+00  0.00000000E+00  0.00000000E+00
  0.00000000E+00  0.00000000E+00  0.00000000E+00
  0.00000000E+00  0.00000000E+00  0.00000000E+00
  0.00000000E+00  0.00000000E+00  0.00000000E+00
  0.00000000E+00  0.00000000E+00  0.00000000E+00
  0.00000000E+00  0.00000000E+00  0.00000000E+00
  0.00000000E+00  0.00000000E+00  0.00000000E+00
  0.00000000E+00  0.00000000E+00  0.00000000E+00
  0.00000000E+00  0.00000000E+00  0.00000000E+00
  0.00000000E+00  0.00000000E+00  0.00000000E+00
  0.00000000E+00  0.00000000E+00  0.00000000E+00
  0.00000000E+00  0.00000000E+00  0.00000000E+00
  0.00000000E+00  0.00000000E+00  0.00000000E+00
  0.00000000E+00  0.00000000E+00  0.00000000E+00
  0.00000000E+00  0.00000000E+00  0.00000000E+00
  0.00000000E+00  0.00000000E+00  0.00000000E+00
  0.00000000E+00  0.00000000E+00  0.00000000E+00
  0.00000000E+00  0.00000000E+00  0.00000000E+00
  0.00000000E+00  0.00000000E+00  0.00000000E+00
  0.00000000E+00  0.00000000E+00  0.00000000E+00
  0.00000000E+00  0.00000000E+00  0.00000000E+00
  0.00000000E+00  0.00000000E+00  0.00000000E+00
  0.00000000E+00  0.00000000E+00  0.00000000E+00
  0.00000000E+00  0.00000000E+00  0.00000000E+00
  0.00000000E+00  0.00000000E+00  0.00000000E+00
  0.00000000E+00  0.00000000E+00  0.00000000E+00
  0.00000000E+00  0.00000000E+00  0.00000000E+00
  0.00000000E+00  0.00000000E+00  0.00000000E+00
  0.00000000E+00  0.00000000E+00  0.00000000E+00
  0.00000000E+00  0.00000000E+00  0.00000000E+00
  0.00000000E+00  0.00000000E+00  0.00000000E+00
  0.00000000E+00  0.00000000E+00  0.00000000E+00
  0.00000000E+00  0.00000000E+00  0.00000000E+00
  0.00000000E+00  0.00000000E+00  0.00000000E+00
  0.00000000E+00  0.00000000E+00  0.00000000E+00
  0.00000000E+00  0.00000000E+00  0.00000000E+00
  0.00000000E+00  0.00000000E+00  0.00000000E+00
  0.00000000E+00  0.00000000E+00  0.00000000E+00
  0.00000000E+00  0.00000000E+00  0.00000000E+00
  0.00000000E+00  0.00000000E+00  0.00000000E+00
  0.00000000E+00  0.00000000E+00  0.00000000E+00
  0.00000000E+00  0.00000000E+00  0.00000000E+00
  0.00000000E+00  0.00000000E+00  0.00000000E+00
  0.00000000E+00  0.00000000E+00  0.00000000E+00
  0.00000000E+00  0.00000000E+00  0.00000000E+00
  0.00000000E+00  0.00000000E+00  0.00000000E+00
  0.00000000E+00  0.00000000E+00  0.00000000E+00
  0.00000000E+00  0.00000000E+00  0.00000000E+00
  0.00000000E+00  0.00000000E+00  0.00000000E+00
  0.00000000E+00  0.00000000E+00  0.00000000E+00
  0.00000000E+00  0.00000000E+00  0.00000000E+00
  0.00000000E+00  0.00000000E+00  0.00000000E+00
  0.00000000E+00  0.00000000E+00  0.00000000E+00
  0.00000000E+00  0.00000000E+00  0.00000000E+00
  0.00000000E+00  0.00000000E+00  0.00000000E+00
  0.00000000E+00  0.00000000E+00  0.00000000E+00
  0.00000000E+00  0.00000000E+00  0.00000000E+00
  0.00000000E+00  0.00000000E+00  0.00000000E+00
  0.00000000E+00  0.00000000E+00  0.00000000E+00
  0.00000000E+00  0.00000000E+00  0.00000000E+00
  0.00000000E+00  0.00000000E+00  0.00000000E+00
  0.00000000E+00  0.00000000E+00  0.00000000E+00
  0.00000000E+00  0.00000000E+00  0.00000000E+00
  0.00000000E+00  0.00000000E+00  0.00000000E+00
  0.00000000E+00  0.00000000E+00  0.00000000E+00
  0.00000000E+00  0.00000000E+00  0.00000000E+00
  0.00000000E+00  0.00000000E+00  0.00000000E+00
  0.00000000E+00  0.00000000E+00  0.00000000E+00
  0.00000000E+00  0.00000000E+00  0.00000000E+00
  0.00000000E+00  0.00000000E+00  0.00000000E+00
  0.00000000E+00  0.00000000E+00  0.00000000E+00
  0.00000000E+00  0.00000000E+00  0.00000000E+00
  0.00000000E+00  0.00000000E+00  0.00000000E+00
  0.00000000E+00  0.00000000E+00  0.00000000E+00
  0.00000000E+00  0.00000000E+00  0.00000000E+00
  0.00000000E+00  0.00000000E+00  0.00000000E+00
  0.00000000E+00  0.00000000E+00  0.00000000E+00
  0.00000000E+00  0.00000000E+00  0.00000000E+00
  0.00000000E+00  0.00000000E+00  0.00000000E+00
  0.00000000E+00  0.00000000E+00  0.00000000E+00
  0.00000000E+00  0.00000000E+00  0.00000000E+00
  0.00000000E+00  0.00000000E+00  0.00000000E+00
  0.00000000E+00  0.00000000E+00  0.00000000E+00
  0.00000000E+00  0.00000000E+00  0.00000000E+00
  0.00000000E+00  0.00000000E+00  0.00000000E+00
  0.00000000E+00  0.00000000E+00  0.00000000E+00
  0.00000000E+00  0.00000000E+00  0.00000000E+00
  0.00000000E+00  0.00000000E+00  0.00000000E+00
  0.00000000E+00  0.00000000E+00  0.00000000E+00
  0.00000000E+00  0.00000000E+00  0.00000000E+00
  0.00000000E+00  0.00000000E+00  0.00000000E+00
  0.00000000E+00  0.00000000E+00  0.00000000E+00
  0.00000000E+00  0.00000000E+00  0.00000000E+00
  0.00000000E+00  0.00000000E+00  0.00000000E+00
  0.00000000E+00  0.00000000E+00  0.00000000E+00
  0.00000000E+00  0.00000000E+00  0.00000000E+00
  0.00000000E+00  0.00000000E+00  0.00000000E+00
  0.00000000E+00  0.00000000E+00  0.00000000E+00
  0.00000000E+00  0.00000000E+00  0.00000000E+00
  0.00000000E+00  0.00000000E+00  0.00000000E+00
  0.00000000E+00  0.00000000E+00  0.00000000E+00
  0.00000000E+00  0.00000000E+00  0.00000000E+00
  0.00000000E+00  0.00000000E+00  0.00000000E+00
  0.00000000E+00  0.00000000E+00  0.00000000E+00
  0.00000000E+00  0.00000000E+00  0.00000000E+00
  0.00000000E+00  0.00000000E+00  0.00000000E+00
  0.00000000E+00  0.00000000E+00  0.00000000E+00
  0.00000000E+00  0.00000000E+00  0.00000000E+00
  0.00000000E+00  0.00000000E+00  0.00000000E+00
  0.00000000E+00  0.00000000E+00  0.00000000E+00
  0.00000000E+00  0.00000000E+00  0.00000000E+00
  0.00000000E+00  0.00000000E+00  0.00000000E+00
  0.00000000E+00  0.00000000E+00  0.00000000E+00
  0.00000000E+00  0.00000000E+00  0.00000000E+00
  0.00000000E+00  0.00000000E+00  0.00000000E+00
  0.00000000E+00  0.00000000E+00  0.00000000E+00
  0.00000000E+00  0.00000000E+00  0.00000000E+00
  0.00000000E+00  0.00000000E+00  0.00000000E+00
  0.00000000E+00  0.00000000E+00  0.00000000E+00
  0.00000000E+00  0.00000000E+00  0.00000000E+00
  0.00000000E+00  0.00000000E+00  0.00000000E+00
  0.00000000E+00  0.00000000E+00  0.00000000E+00
  0.00000000E+00  0.00000000E+00  0.00000000E+00
  0.00000000E+00  0.00000000E+00  0.00000000E+00
  0.00000000E+00  0.00000000E+00  0.00000000E+00
  0.00000000E+00  0.00000000E+00  0.00000000E+00
  0.00000000E+00  0.00000000E+00  0.00000000E+00
  0.00000000E+00  0.00000000E+00  0.00000000E+00
  0.00000000E+00  0.00000000E+00  0.00000000E+00
  0.00000000E+00  0.00000000E+00  0.00000000E+00
  0.00000000E+00  0.00000000E+00  0.00000000E+00
  0.00000000E+00  0.00000000E+00  0.00000000E+00
  0.00000000E+00  0.00000000E+00  0.00000000E+00
  0.00000000E+00  0.00000000E+00  0.00000000E+00
  0.00000000E+00  0.00000000E+00  0.00000000E+00
  0.00000000E+00  0.00000000E+00  0.00000000E+00
  0.00000000E+00  0.00000000E+00  0.00000000E+00
  0.00000000E+00  0.00000000E+00  0.00000000E+00
  0.00000000E+00  0.00000000E+00  0.00000000E+00
  0.00000000E+00  0.00000000E+00  0.00000000E+00
  0.00000000E+00  0.00000000E+00  0.00000000E+00
  0.00000000E+00  0.00000000E+00  0.00000000E+00
  0.00000000E+00  0.00000000E+00  0.00000000E+00
  0.00000000E+00  0.00000000E+00  0.00000000E+00
  0.00000000E+00  0.00000000E+00  0.00000000E+00
  0.00000000E+00  0.00000000E+00  0.00000000E+00
  0.00000000E+00  0.00000000E+00  0.00000000E+00
  0.00000000E+00  0.00000000E+00  0.00000000E+00
  0.00000000E+00  0.00000000E+00  0.00000000E+00
  0.00000000E+00  0.00000000E+00  0.00000000E+00
  0.00000000E+00  0.00000000E+00  0.00000000E+00
  0.00000000E+00  0.00000000E+00  0.00000000E+00
  0.00000000E+00  0.00000000E+00  0.00000000E+00
  0.00000000E+00  0.00000000E+00  0.00000000E+00
  0.00000000E+00  0.00000000E+00  0.00000000E+00
  0.00000000E+00  0.00000000E+00  0.00000000E+00
  0.00000000E+00  0.00000000E+00  0.00000000E+00
  0.00000000E+00  0.00000000E+00  0.00000000E+00
  0.00000000E+00  0.00000000E+00  0.00000000E+00
