C194N8H16Fe1                            
   1.00000000000000     
    22.2402198928597983    0.0000000000000000    0.0000000000000000
   -11.1219251653908149   19.2595472817562161    0.0000000000000000
     0.0000000000000010    0.0000000000000017   15.9821208207354477
   C    N    H    Fe
   194     8    16     1
Direct
  0.9999996767854427  0.0000049246487421  0.1126848755174095
  0.0370640962994173  0.0740913034815094  0.1127804017852370
  0.0000145777794174  0.1111231745792551  0.1127130683847781
  0.0370741088566504  0.1852035231749909  0.1127840186795197
  0.0000228957389012  0.2222382030380601  0.1126941855996790
  0.0370777187402282  0.2963153391374647  0.1126772199308661
  0.0000210714026352  0.3333428888661487  0.1126594241954848
  0.0370822395367725  0.4074254427354944  0.1125655384963125
  0.0000076280167320  0.4444428969550955  0.1126979562443822
  0.0370553255747978  0.5185145147223906  0.1126714457826736
  0.9999912301302061  0.5555445296865429  0.1127580521299336
  0.0370300630121818  0.6296159036206532  0.1127167926195227
  0.9999743442463469  0.6666483341912723  0.1126946481720310
  0.0370210640331408  0.7407270678546496  0.1126252863658124
  0.9999742422115361  0.7777637283471961  0.1126127667336121
  0.0370286858010473  0.8518456826984746  0.1125925602879931
  0.9999833785850996  0.8888845858513292  0.1126203683166764
  0.0370446836421081  0.9629690658172763  0.1126821814364547
  0.1111279720836080  0.0000321174441567  0.1128072364868515
  0.1481866851608871  0.0741146131418944  0.1130061213634548
  0.1111460471741026  0.1111493296831441  0.1129892044093594
  0.1481976126480831  0.1852210285000453  0.1131317312920643
  0.1111557892666966  0.2222534846055524  0.1129907830956896
  0.1482066734518881  0.2963311077819313  0.1129520251402312
  0.1111641968394323  0.3333708244665274  0.1126685634022451
  0.1482094889825305  0.4074382044265903  0.1123302905171855
  0.1111645180180503  0.4444617135130144  0.1122397652809681
  0.1482060486425141  0.5185167991341757  0.1120393986995083
  0.1111418820461552  0.5555333893441698  0.1124249447336680
  0.1481701516897544  0.6296098189502644  0.1125389981882492
  0.1111162311620433  0.6666487978350375  0.1126729083966964
  0.1481497974482906  0.7407273610720040  0.1126347757294397
  0.1111031956146746  0.7777712316117658  0.1126053774491069
  0.1481447235826963  0.8518490858784133  0.1125999406776543
  0.1111079605555005  0.8888955052009848  0.1126178623678769
  0.1481587033024283  0.9629839296614051  0.1127537331597210
  0.2222379930216363  0.0000410523009151  0.1128435479749115
  0.2592744366738202  0.0741251985118865  0.1130451000163930
  0.2222522618267675  0.1111668032597990  0.1131608637165868
  0.2592897574188697  0.1852337721614887  0.1133654316259225
  0.2222604290319907  0.2222619409777948  0.1133532162038406
  0.2592814054207651  0.2963221734593162  0.1134801653509854
  0.2222628939779483  0.3333679884675576  0.1131665118810261
  0.2592734709084681  0.4074230469178914  0.1129842066931914
  0.2222608414393790  0.4444645118221757  0.1123730768035855
  0.2592831167832301  0.5185154914918826  0.1121575431102215
  0.2222573959222913  0.5555342104392054  0.1118592348069143
  0.2592763776264633  0.6295792010971226  0.1120464518626036
  0.2222486892915754  0.6666251876261029  0.1123759229816201
  0.2592647108331221  0.7407090122904307  0.1125688279441377
  0.2222250010873523  0.7777596880752569  0.1126215034586124
  0.2592627167475072  0.8518447676126613  0.1126169549486704
  0.2222233316306657  0.8888957468649963  0.1126280662124373
  0.2592635190809247  0.9629826240653330  0.1127267829018308
  0.3333361606909477  0.0000226757055017  0.1127416079474912
  0.3703686259275827  0.0741131272888609  0.1128852117985488
  0.3333428831471537  0.1111655699483691  0.1130666480497311
  0.3703746844886453  0.1852353485968692  0.1132232018127155
  0.3333378922540646  0.2222577309409886  0.1134512551889344
  0.3703747010067175  0.2963167721176987  0.1137159088194224
  0.3333336402736222  0.3333426635457570  0.1138161843508527
  0.3703519866789122  0.4074045306513270  0.1140285198074125
  0.3333278628706466  0.4444489242837975  0.1135284910465515
  0.3703633437709115  0.5185137006535285  0.1134021129451170
  0.3333239551715508  0.5555357397641600  0.1126702219912019
  0.3703726902140332  0.6295863885596802  0.1126678711240956
  0.3333311752709633  0.6666063183206461  0.1123779932960574
  0.3703655448810110  0.7406847805135399  0.1126482645609528
  0.3333427382205585  0.7777455711852923  0.1126190436540142
  0.3703713108921605  0.8518313926555763  0.1126414221989123
  0.3333354888582960  0.8888858270103555  0.1126161246816650
  0.3703683742994031  0.9629654404528765  0.1126426027180329
  0.4444410996917867  0.0000064857706263  0.1126298965063555
  0.4814722626253740  0.0740892786024077  0.1126784049458180
  0.4444427813007437  0.1111483477602846  0.1128201499619692
  0.4814696137927541  0.1852295718025516  0.1128322653403657
  0.4444365094514993  0.2222695814614113  0.1130475870861787
  0.4814872351549724  0.2963320521148347  0.1130736881545573
  0.4444419607581551  0.3333426674040538  0.1135963433699132
  0.4814826211449770  0.4073949778970700  0.1139195849636465
  0.4444319938926782  0.4444327310675149  0.1143238887369336
  0.4814755343864761  0.5185154072062801  0.1143044711350498
  0.4444262265383614  0.5555471503718152  0.1138786590559064
  0.4814729323816209  0.6296055964796494  0.1135903085141905
  0.4444248733787504  0.6666125167608783  0.1131316777602507
  0.4814744874879153  0.7406780108075992  0.1130895860912347
  0.4444421761563575  0.7777264905245076  0.1128690840509066
  0.4814709882609236  0.8518080618845829  0.1128112814960787
  0.4444418656550297  0.8888671608465017  0.1126711933644415
  0.4814746355582216  0.9629513014223789  0.1126244347427132
  0.5555455019075808  0.9999905957835225  0.1126327504265703
  0.5925767745499684  0.0740707053630985  0.1126123149150757
  0.5555420735696615  0.1111244332922396  0.1126344426577859
  0.5925726989100184  0.1852110117441441  0.1125742159818088
  0.5555464734776550  0.2222722513447337  0.1125633674410338
  0.5925833147611215  0.2963439073197236  0.1122536073308993
  0.5555339766738854  0.3333569314161764  0.1126074445730012
  0.5925804872274369  0.4074049109990909  0.1127614441969200
  0.5555474878290880  0.4444330787727750  0.1134989378793065
  0.5925806278450167  0.5184974727031033  0.1136783179056877
  0.5555560957381971  0.5555439810433072  0.1140745517732853
  0.5925774234159391  0.6296048673498476  0.1138399205168525
  0.5555345195313919  0.6666302293451594  0.1136941815410282
  0.5925748686910026  0.7406889577825737  0.1134181029094066
  0.5555407748742667  0.7777144200714119  0.1132252206687596
  0.5925721934075980  0.8517875477364996  0.1130538784687474
  0.5555455390413968  0.8888475073507109  0.1128635006862595
  0.5925764457448750  0.9629315208610407  0.1127203264020196
  0.6666529317092440  0.9999757382518695  0.1127061081393705
  0.7036896420538383  0.0740612485672401  0.1126233966504273
  0.6666546177071453  0.1111123707933430  0.1126159293290812
  0.7036871802059750  0.1851945630457479  0.1126121030321059
  0.6666458890768752  0.2222480827603945  0.1125126091649946
  0.7036622972071811  0.2963294058313792  0.1122854225901193
  0.6666302425012134  0.3333673395750480  0.1119559515535045
  0.7036575983201345  0.4074126075345674  0.1119691407426515
  0.6666323981365636  0.4444325682173442  0.1123968217135882
  0.7036496666608443  0.5184802953166283  0.1127369536659941
  0.6666368683759174  0.5555276410088936  0.1132618612519423
  0.7036494538957001  0.6295829233537660  0.1133442697170466
  0.6666307936378502  0.6666299274221927  0.1135392197085068
  0.7036579404414240  0.7406919294738046  0.1133420111366519
  0.6666252967148338  0.7777172568814876  0.1133152466433600
  0.7036644527061995  0.8517842947924592  0.1131114838585745
  0.6666426346430256  0.8888303963902615  0.1130159601415883
  0.7036783614031279  0.9629158592170484  0.1128156994632690
  0.7777607661614283  0.9999732365094971  0.1127281189245792
  0.8148083887939563  0.0740604892030134  0.1126077372856997
  0.7777707150120321  0.1111062872938433  0.1125989434657839
  0.8148099636216415  0.1851859394061179  0.1126199776215486
  0.7777634327516267  0.2222247724955508  0.1126404051999472
  0.8147967766817388  0.2963084868566455  0.1126776761159078
  0.7777376616515923  0.3333432960808693  0.1125172793291824
  0.8147688229413674  0.4074187756890666  0.1124704209392107
  0.7777025236105715  0.4444304293470722  0.1121882258638820
  0.8147487422976312  0.5184862522446281  0.1124742003832253
  0.7777064073451783  0.5555120528358870  0.1126647356937980
  0.8147532031996647  0.6295855879595962  0.1128703363550585
  0.7777107031977550  0.6666217924426547  0.1130958243992097
  0.8147602121951394  0.7406993683334449  0.1130247409769609
  0.7777140441788788  0.7777289260180851  0.1131229721328495
  0.8147705542134460  0.8518052619689271  0.1129636101317715
  0.7777294450613610  0.8888346990759786  0.1129708479474232
  0.8147903585571115  0.9629264101914998  0.1127817988426330
  0.8888734433214225  0.9999845802503131  0.1126732552042142
  0.9259306335007551  0.0740700549541273  0.1126220793057868
  0.8888880988236423  0.1111074566657422  0.1125922324562794
  0.9259420211031042  0.1851921584154326  0.1126182870840537
  0.8888923953525705  0.2222256987887761  0.1126371637530497
  0.9259361534176094  0.2963050182265903  0.1126945075825319
  0.8888784469938145  0.3333343255638255  0.1127276201099789
  0.9259179517986240  0.4074083486749629  0.1127606565084847
  0.8888513868801198  0.4444330374807564  0.1127097001838706
  0.9259036657967812  0.5185112532538696  0.1127444742681263
  0.8888288268760789  0.5555257286346134  0.1126812484938924
  0.9258904586592394  0.6296066823723905  0.1127258995943947
  0.8888337950140510  0.6666356600224859  0.1127636451987541
  0.9258900036812960  0.7407151741645635  0.1127126306189226
  0.8888399175966413  0.7777470792701280  0.1127942400271067
  0.9259027300376843  0.8518321101668320  0.1127032206055674
  0.8888536366290793  0.8888611474350512  0.1127659911706829
  0.9259165361744408  0.9629496391683148  0.1126791207429889
  0.2671270346331340  0.1335975458945029  0.3755328414780905
  0.3363793262966013  0.1869748325892004  0.3683674543017474
  0.3491734832191185  0.2553904896490451  0.3628220978434342
  0.2940519439738338  0.2699603437142386  0.3637396237603028
  0.2247167647369750  0.2165082033872920  0.3705376523448436
  0.2120094424962033  0.1482184144306231  0.3766763992240243
  0.3256796828828854  0.3453044710284985  0.3580237365336458
  0.4132956770565031  0.3221705520258240  0.3570506734439576
  0.3179834816792280  0.4458462834961452  0.3512900736292863
  0.3950164405773293  0.5604634626711942  0.3528307896757354
  0.2778908002931360  0.4813598885764989  0.3453395305185794
  0.3263267074229219  0.5534341738716293  0.3467421589383264
  0.3045499403120928  0.6026765551853259  0.3419990564605371
  0.2331028915041529  0.5779358964075314  0.3351512856982595
  0.1846838100903696  0.5058410743571855  0.3332449647311009
  0.2063717423014353  0.4566141785412370  0.3384885903980432
  0.5338933612582295  0.3892530523188000  0.3512916623198379
  0.6109031702154155  0.5037977797666926  0.3562696672488244
  0.6247004349083127  0.3475404463038316  0.3387194195770036
  0.6963327462543347  0.3725314066926870  0.3346571509596998
  0.7447754506030293  0.4445385834387068  0.3390369603626695
  0.7228813950726831  0.4934423212979553  0.3471899598493096
  0.6511720249019035  0.4684639599694691  0.3505510335352682
  0.6027324114113810  0.3964548532927736  0.3466765624132648
  0.6030953875104714  0.6042666182209118  0.3632882080176998
  0.5155516535804026  0.6274567907058710  0.3604250469930790
  0.6347719338926936  0.6796814024425970  0.3672859146905552
  0.7042108725004894  0.7332622467505772  0.3717053353097128
  0.7170887961649228  0.8017501208741535  0.3734383116952387
  0.6620267323317250  0.8164113607170336  0.3706850798538923
  0.5926438572818427  0.7628699639116263  0.3665335001042322
  0.5797020845209246  0.6942877092643300  0.3649881731620681
  0.3977803979049170  0.3757360441120241  0.3556833895534126
  0.2885339501718249  0.3770727749403946  0.3543611813761345
  0.3886508728987295  0.4947326662887619  0.3544934356107490
  0.4757256140733688  0.3278773430816955  0.3530799186866176
  0.5402007430853146  0.4549097465180267  0.3554419052610953
  0.6402737004049257  0.5724919100971348  0.3610940022278442
  0.5310220818859861  0.5738517526543347  0.3599391542915740
  0.4531432972310938  0.6217919017988720  0.3562518923795537
  0.2552563937154133  0.0797626413442813  0.3808809679393192
  0.3792343644626257  0.1762659384914969  0.3677412974213681
  0.1825366517418985  0.2282184802455589  0.3717158060962404
  0.1586598158482602  0.1053377809334393  0.3828879788914605
  0.3423464309349882  0.6581517886637016  0.3433577504879821
  0.2142776898705065  0.6147729517946985  0.3306900841113816
  0.1293962774788540  0.4884160843389935  0.3270878805789579
  0.1693592606189611  0.4009389549666267  0.3368791161353428
  0.5869248380664587  0.2921474539881572  0.3349773668942433
  0.7152998969348445  0.3360089022790049  0.3272721196180228
  0.8002511559022736  0.4621867127257673  0.3353739140155128
  0.7598788709521571  0.5490803237411370  0.3502789715294981
  0.7463575861790730  0.7215255474486781  0.3737643116281291
  0.7705650592433102  0.8447928631807144  0.3770194314885629
  0.6740717336322035  0.8704467356345091  0.3718701015820685
  0.5498309089493461  0.7736114740403934  0.3644765733765283
  0.4644166468871305  0.4748084872445517  0.3558089436214402
 
  0.00000000E+00  0.00000000E+00  0.00000000E+00
  0.00000000E+00  0.00000000E+00  0.00000000E+00
  0.00000000E+00  0.00000000E+00  0.00000000E+00
  0.00000000E+00  0.00000000E+00  0.00000000E+00
  0.00000000E+00  0.00000000E+00  0.00000000E+00
  0.00000000E+00  0.00000000E+00  0.00000000E+00
  0.00000000E+00  0.00000000E+00  0.00000000E+00
  0.00000000E+00  0.00000000E+00  0.00000000E+00
  0.00000000E+00  0.00000000E+00  0.00000000E+00
  0.00000000E+00  0.00000000E+00  0.00000000E+00
  0.00000000E+00  0.00000000E+00  0.00000000E+00
  0.00000000E+00  0.00000000E+00  0.00000000E+00
  0.00000000E+00  0.00000000E+00  0.00000000E+00
  0.00000000E+00  0.00000000E+00  0.00000000E+00
  0.00000000E+00  0.00000000E+00  0.00000000E+00
  0.00000000E+00  0.00000000E+00  0.00000000E+00
  0.00000000E+00  0.00000000E+00  0.00000000E+00
  0.00000000E+00  0.00000000E+00  0.00000000E+00
  0.00000000E+00  0.00000000E+00  0.00000000E+00
  0.00000000E+00  0.00000000E+00  0.00000000E+00
  0.00000000E+00  0.00000000E+00  0.00000000E+00
  0.00000000E+00  0.00000000E+00  0.00000000E+00
  0.00000000E+00  0.00000000E+00  0.00000000E+00
  0.00000000E+00  0.00000000E+00  0.00000000E+00
  0.00000000E+00  0.00000000E+00  0.00000000E+00
  0.00000000E+00  0.00000000E+00  0.00000000E+00
  0.00000000E+00  0.00000000E+00  0.00000000E+00
  0.00000000E+00  0.00000000E+00  0.00000000E+00
  0.00000000E+00  0.00000000E+00  0.00000000E+00
  0.00000000E+00  0.00000000E+00  0.00000000E+00
  0.00000000E+00  0.00000000E+00  0.00000000E+00
  0.00000000E+00  0.00000000E+00  0.00000000E+00
  0.00000000E+00  0.00000000E+00  0.00000000E+00
  0.00000000E+00  0.00000000E+00  0.00000000E+00
  0.00000000E+00  0.00000000E+00  0.00000000E+00
  0.00000000E+00  0.00000000E+00  0.00000000E+00
  0.00000000E+00  0.00000000E+00  0.00000000E+00
  0.00000000E+00  0.00000000E+00  0.00000000E+00
  0.00000000E+00  0.00000000E+00  0.00000000E+00
  0.00000000E+00  0.00000000E+00  0.00000000E+00
  0.00000000E+00  0.00000000E+00  0.00000000E+00
  0.00000000E+00  0.00000000E+00  0.00000000E+00
  0.00000000E+00  0.00000000E+00  0.00000000E+00
  0.00000000E+00  0.00000000E+00  0.00000000E+00
  0.00000000E+00  0.00000000E+00  0.00000000E+00
  0.00000000E+00  0.00000000E+00  0.00000000E+00
  0.00000000E+00  0.00000000E+00  0.00000000E+00
  0.00000000E+00  0.00000000E+00  0.00000000E+00
  0.00000000E+00  0.00000000E+00  0.00000000E+00
  0.00000000E+00  0.00000000E+00  0.00000000E+00
  0.00000000E+00  0.00000000E+00  0.00000000E+00
  0.00000000E+00  0.00000000E+00  0.00000000E+00
  0.00000000E+00  0.00000000E+00  0.00000000E+00
  0.00000000E+00  0.00000000E+00  0.00000000E+00
  0.00000000E+00  0.00000000E+00  0.00000000E+00
  0.00000000E+00  0.00000000E+00  0.00000000E+00
  0.00000000E+00  0.00000000E+00  0.00000000E+00
  0.00000000E+00  0.00000000E+00  0.00000000E+00
  0.00000000E+00  0.00000000E+00  0.00000000E+00
  0.00000000E+00  0.00000000E+00  0.00000000E+00
  0.00000000E+00  0.00000000E+00  0.00000000E+00
  0.00000000E+00  0.00000000E+00  0.00000000E+00
  0.00000000E+00  0.00000000E+00  0.00000000E+00
  0.00000000E+00  0.00000000E+00  0.00000000E+00
  0.00000000E+00  0.00000000E+00  0.00000000E+00
  0.00000000E+00  0.00000000E+00  0.00000000E+00
  0.00000000E+00  0.00000000E+00  0.00000000E+00
  0.00000000E+00  0.00000000E+00  0.00000000E+00
  0.00000000E+00  0.00000000E+00  0.00000000E+00
  0.00000000E+00  0.00000000E+00  0.00000000E+00
  0.00000000E+00  0.00000000E+00  0.00000000E+00
  0.00000000E+00  0.00000000E+00  0.00000000E+00
  0.00000000E+00  0.00000000E+00  0.00000000E+00
  0.00000000E+00  0.00000000E+00  0.00000000E+00
  0.00000000E+00  0.00000000E+00  0.00000000E+00
  0.00000000E+00  0.00000000E+00  0.00000000E+00
  0.00000000E+00  0.00000000E+00  0.00000000E+00
  0.00000000E+00  0.00000000E+00  0.00000000E+00
  0.00000000E+00  0.00000000E+00  0.00000000E+00
  0.00000000E+00  0.00000000E+00  0.00000000E+00
  0.00000000E+00  0.00000000E+00  0.00000000E+00
  0.00000000E+00  0.00000000E+00  0.00000000E+00
  0.00000000E+00  0.00000000E+00  0.00000000E+00
  0.00000000E+00  0.00000000E+00  0.00000000E+00
  0.00000000E+00  0.00000000E+00  0.00000000E+00
  0.00000000E+00  0.00000000E+00  0.00000000E+00
  0.00000000E+00  0.00000000E+00  0.00000000E+00
  0.00000000E+00  0.00000000E+00  0.00000000E+00
  0.00000000E+00  0.00000000E+00  0.00000000E+00
  0.00000000E+00  0.00000000E+00  0.00000000E+00
  0.00000000E+00  0.00000000E+00  0.00000000E+00
  0.00000000E+00  0.00000000E+00  0.00000000E+00
  0.00000000E+00  0.00000000E+00  0.00000000E+00
  0.00000000E+00  0.00000000E+00  0.00000000E+00
  0.00000000E+00  0.00000000E+00  0.00000000E+00
  0.00000000E+00  0.00000000E+00  0.00000000E+00
  0.00000000E+00  0.00000000E+00  0.00000000E+00
  0.00000000E+00  0.00000000E+00  0.00000000E+00
  0.00000000E+00  0.00000000E+00  0.00000000E+00
  0.00000000E+00  0.00000000E+00  0.00000000E+00
  0.00000000E+00  0.00000000E+00  0.00000000E+00
  0.00000000E+00  0.00000000E+00  0.00000000E+00
  0.00000000E+00  0.00000000E+00  0.00000000E+00
  0.00000000E+00  0.00000000E+00  0.00000000E+00
  0.00000000E+00  0.00000000E+00  0.00000000E+00
  0.00000000E+00  0.00000000E+00  0.00000000E+00
  0.00000000E+00  0.00000000E+00  0.00000000E+00
  0.00000000E+00  0.00000000E+00  0.00000000E+00
  0.00000000E+00  0.00000000E+00  0.00000000E+00
  0.00000000E+00  0.00000000E+00  0.00000000E+00
  0.00000000E+00  0.00000000E+00  0.00000000E+00
  0.00000000E+00  0.00000000E+00  0.00000000E+00
  0.00000000E+00  0.00000000E+00  0.00000000E+00
  0.00000000E+00  0.00000000E+00  0.00000000E+00
  0.00000000E+00  0.00000000E+00  0.00000000E+00
  0.00000000E+00  0.00000000E+00  0.00000000E+00
  0.00000000E+00  0.00000000E+00  0.00000000E+00
  0.00000000E+00  0.00000000E+00  0.00000000E+00
  0.00000000E+00  0.00000000E+00  0.00000000E+00
  0.00000000E+00  0.00000000E+00  0.00000000E+00
  0.00000000E+00  0.00000000E+00  0.00000000E+00
  0.00000000E+00  0.00000000E+00  0.00000000E+00
  0.00000000E+00  0.00000000E+00  0.00000000E+00
  0.00000000E+00  0.00000000E+00  0.00000000E+00
  0.00000000E+00  0.00000000E+00  0.00000000E+00
  0.00000000E+00  0.00000000E+00  0.00000000E+00
  0.00000000E+00  0.00000000E+00  0.00000000E+00
  0.00000000E+00  0.00000000E+00  0.00000000E+00
  0.00000000E+00  0.00000000E+00  0.00000000E+00
  0.00000000E+00  0.00000000E+00  0.00000000E+00
  0.00000000E+00  0.00000000E+00  0.00000000E+00
  0.00000000E+00  0.00000000E+00  0.00000000E+00
  0.00000000E+00  0.00000000E+00  0.00000000E+00
  0.00000000E+00  0.00000000E+00  0.00000000E+00
  0.00000000E+00  0.00000000E+00  0.00000000E+00
  0.00000000E+00  0.00000000E+00  0.00000000E+00
  0.00000000E+00  0.00000000E+00  0.00000000E+00
  0.00000000E+00  0.00000000E+00  0.00000000E+00
  0.00000000E+00  0.00000000E+00  0.00000000E+00
  0.00000000E+00  0.00000000E+00  0.00000000E+00
  0.00000000E+00  0.00000000E+00  0.00000000E+00
  0.00000000E+00  0.00000000E+00  0.00000000E+00
  0.00000000E+00  0.00000000E+00  0.00000000E+00
  0.00000000E+00  0.00000000E+00  0.00000000E+00
  0.00000000E+00  0.00000000E+00  0.00000000E+00
  0.00000000E+00  0.00000000E+00  0.00000000E+00
  0.00000000E+00  0.00000000E+00  0.00000000E+00
  0.00000000E+00  0.00000000E+00  0.00000000E+00
  0.00000000E+00  0.00000000E+00  0.00000000E+00
  0.00000000E+00  0.00000000E+00  0.00000000E+00
  0.00000000E+00  0.00000000E+00  0.00000000E+00
  0.00000000E+00  0.00000000E+00  0.00000000E+00
  0.00000000E+00  0.00000000E+00  0.00000000E+00
  0.00000000E+00  0.00000000E+00  0.00000000E+00
  0.00000000E+00  0.00000000E+00  0.00000000E+00
  0.00000000E+00  0.00000000E+00  0.00000000E+00
  0.00000000E+00  0.00000000E+00  0.00000000E+00
  0.00000000E+00  0.00000000E+00  0.00000000E+00
  0.00000000E+00  0.00000000E+00  0.00000000E+00
  0.00000000E+00  0.00000000E+00  0.00000000E+00
  0.00000000E+00  0.00000000E+00  0.00000000E+00
  0.00000000E+00  0.00000000E+00  0.00000000E+00
  0.00000000E+00  0.00000000E+00  0.00000000E+00
  0.00000000E+00  0.00000000E+00  0.00000000E+00
  0.00000000E+00  0.00000000E+00  0.00000000E+00
  0.00000000E+00  0.00000000E+00  0.00000000E+00
  0.00000000E+00  0.00000000E+00  0.00000000E+00
  0.00000000E+00  0.00000000E+00  0.00000000E+00
  0.00000000E+00  0.00000000E+00  0.00000000E+00
  0.00000000E+00  0.00000000E+00  0.00000000E+00
  0.00000000E+00  0.00000000E+00  0.00000000E+00
  0.00000000E+00  0.00000000E+00  0.00000000E+00
  0.00000000E+00  0.00000000E+00  0.00000000E+00
  0.00000000E+00  0.00000000E+00  0.00000000E+00
  0.00000000E+00  0.00000000E+00  0.00000000E+00
  0.00000000E+00  0.00000000E+00  0.00000000E+00
  0.00000000E+00  0.00000000E+00  0.00000000E+00
  0.00000000E+00  0.00000000E+00  0.00000000E+00
  0.00000000E+00  0.00000000E+00  0.00000000E+00
  0.00000000E+00  0.00000000E+00  0.00000000E+00
  0.00000000E+00  0.00000000E+00  0.00000000E+00
  0.00000000E+00  0.00000000E+00  0.00000000E+00
  0.00000000E+00  0.00000000E+00  0.00000000E+00
  0.00000000E+00  0.00000000E+00  0.00000000E+00
  0.00000000E+00  0.00000000E+00  0.00000000E+00
  0.00000000E+00  0.00000000E+00  0.00000000E+00
  0.00000000E+00  0.00000000E+00  0.00000000E+00
  0.00000000E+00  0.00000000E+00  0.00000000E+00
  0.00000000E+00  0.00000000E+00  0.00000000E+00
  0.00000000E+00  0.00000000E+00  0.00000000E+00
  0.00000000E+00  0.00000000E+00  0.00000000E+00
  0.00000000E+00  0.00000000E+00  0.00000000E+00
  0.00000000E+00  0.00000000E+00  0.00000000E+00
  0.00000000E+00  0.00000000E+00  0.00000000E+00
  0.00000000E+00  0.00000000E+00  0.00000000E+00
  0.00000000E+00  0.00000000E+00  0.00000000E+00
  0.00000000E+00  0.00000000E+00  0.00000000E+00
  0.00000000E+00  0.00000000E+00  0.00000000E+00
  0.00000000E+00  0.00000000E+00  0.00000000E+00
  0.00000000E+00  0.00000000E+00  0.00000000E+00
  0.00000000E+00  0.00000000E+00  0.00000000E+00
  0.00000000E+00  0.00000000E+00  0.00000000E+00
  0.00000000E+00  0.00000000E+00  0.00000000E+00
  0.00000000E+00  0.00000000E+00  0.00000000E+00
  0.00000000E+00  0.00000000E+00  0.00000000E+00
  0.00000000E+00  0.00000000E+00  0.00000000E+00
  0.00000000E+00  0.00000000E+00  0.00000000E+00
  0.00000000E+00  0.00000000E+00  0.00000000E+00
  0.00000000E+00  0.00000000E+00  0.00000000E+00
  0.00000000E+00  0.00000000E+00  0.00000000E+00
  0.00000000E+00  0.00000000E+00  0.00000000E+00
  0.00000000E+00  0.00000000E+00  0.00000000E+00
  0.00000000E+00  0.00000000E+00  0.00000000E+00
  0.00000000E+00  0.00000000E+00  0.00000000E+00
  0.00000000E+00  0.00000000E+00  0.00000000E+00
  0.00000000E+00  0.00000000E+00  0.00000000E+00
  0.00000000E+00  0.00000000E+00  0.00000000E+00
  0.00000000E+00  0.00000000E+00  0.00000000E+00
  0.00000000E+00  0.00000000E+00  0.00000000E+00
