C194N9H18Fe1                            
   1.00000000000000     
    22.2387847000439578    0.0000000000000000    0.0000000000000000
   -11.1212074518442652   19.2583044359557753    0.0000000000000000
     0.0000000000000010    0.0000000000000017   15.9810894718956611
   C    N    H    Fe
   194     9    18     1
Direct
  0.9999958121128074  0.0000002397502996  0.1129385465610113
  0.0370596744242135  0.0740886224354256  0.1131191674275271
  0.0000112156405905  0.1111181127281142  0.1129780133845060
  0.0370700054161901  0.1852012216633057  0.1131253861597443
  0.0000209673991165  0.2222345877266676  0.1129255503575735
  0.0370744057750159  0.2963130459840144  0.1129658244954541
  0.0000168658168036  0.3333393563585076  0.1128607193085998
  0.0370799782990545  0.4074247236112214  0.1127987856785779
  0.0000053503474504  0.4444363414862735  0.1128954921668068
  0.0370572896421919  0.5185157227722641  0.1128640622399431
  0.9999910665773513  0.5555418014855746  0.1129426056807503
  0.0370307052849057  0.6296126188467426  0.1128588413549210
  0.9999732859805022  0.6666464012255560  0.1128438347656626
  0.0370210800059638  0.7407241855644457  0.1127336709989919
  0.9999718900341250  0.7777609166950228  0.1127606494783109
  0.0370273264878165  0.8518432452507483  0.1127411784763268
  0.9999824927725172  0.8888819591267207  0.1128172186699956
  0.0370408982386081  0.9629655137043613  0.1129322550347638
  0.1111251185079496  0.0000291846679303  0.1131649300259028
  0.1481838925999526  0.0741124152116441  0.1135727389013326
  0.1111428413795039  0.1111451255986253  0.1135417276617829
  0.1481948797071837  0.1852191219152459  0.1138793414075963
  0.1111520546358520  0.2222497710127840  0.1135966166120781
  0.1482022846542890  0.2963298394630414  0.1136902795240928
  0.1111622961986924  0.3333684187705117  0.1131794325734745
  0.1482078653994918  0.4074380470112331  0.1128690120031095
  0.1111647044596111  0.4444593840047517  0.1125806656250106
  0.1482055834115457  0.5185162784459152  0.1123433555097861
  0.1111430070127071  0.5555291269728002  0.1126314196015983
  0.1481683623469365  0.6296057119033378  0.1127009323731158
  0.1111172105100806  0.6666473386388887  0.1127867797011035
  0.1481471231585587  0.7407231761180100  0.1127142517445279
  0.1111024960775282  0.7777677425966587  0.1126842134988095
  0.1481424720045084  0.8518452389095614  0.1127132834033375
  0.1111051370835767  0.8888933391979847  0.1127831560679908
  0.1481558350496357  0.9629790136942162  0.1130533043806921
  0.2222359493913331  0.0000402430615836  0.1132335309848216
  0.2592705831743203  0.0741188223656195  0.1136756645357622
  0.2222489040573521  0.1111649285949170  0.1139237723048581
  0.2592850843672778  0.1852288054233071  0.1144077615182582
  0.2222575607651436  0.2222595298047381  0.1144050659652365
  0.2592778065569377  0.2963196699211110  0.1147599216913306
  0.2222612573256697  0.3333670301015559  0.1142654579879689
  0.2592695510299734  0.4074215311724032  0.1141622491974204
  0.2222606358724519  0.4444654770048260  0.1132000232465558
  0.2592804400205466  0.5185130773291817  0.1129235464129579
  0.2222591213475340  0.5555313417063772  0.1123050317656435
  0.2592783804242842  0.6295754183038866  0.1124156237196416
  0.2222516478390801  0.6666263680628290  0.1125739708382909
  0.2592639061982425  0.7407022263756531  0.1127095613374394
  0.2222264109611061  0.7777588330241869  0.1127029319637387
  0.2592579521568723  0.8518403911334005  0.1127073591857766
  0.2222235576882170  0.8888915272284521  0.1127640398836718
  0.2592600172413739  0.9629767838010252  0.1129842434238739
  0.3333356194154931  0.0000204705173914  0.1130037304367022
  0.3703638776669891  0.0741055062716285  0.1133221248968397
  0.3333401402854150  0.1111631470841701  0.1137527687670286
  0.3703701444457721  0.1852316048297524  0.1141857424175683
  0.3333363550872264  0.2222548360003884  0.1146529503194103
  0.3703715151186344  0.2963126656217199  0.1152166405355572
  0.3333340225427435  0.3333439096808988  0.1153890573237106
  0.3703485833983393  0.4074010712448910  0.1157788771724668
  0.3333287919974310  0.4444521695273096  0.1150694025751307
  0.3703586456174861  0.5185113745184111  0.1148952454626411
  0.3333277704253916  0.5555382607728703  0.1137396493244651
  0.3703692222922896  0.6295816697457397  0.1135787956465677
  0.3333332118571590  0.6666041006191961  0.1129141667142761
  0.3703650070681448  0.7406785804272076  0.1130512178097902
  0.3333416850378939  0.7777449475143925  0.1128164974963823
  0.3703705199849381  0.8518257203728510  0.1127778431246185
  0.3333350234605419  0.8888817772380762  0.1127157121394617
  0.3703652686360215  0.9629612801573586  0.1127851555829196
  0.4444401257701429  0.0000024185389620  0.1127559759500159
  0.4814685923136608  0.0740830024447661  0.1128652572520963
  0.4444412934171922  0.1111460015111803  0.1131991213616459
  0.4814651350570358  0.1852241708609910  0.1134027697745950
  0.4444342849431422  0.2222668277708664  0.1139676833820502
  0.4814799749180025  0.2963281387126884  0.1142651478637688
  0.4444418467399345  0.3333395986295287  0.1151476338766813
  0.4814762529193573  0.4073903936196643  0.1157085142287855
  0.4444339555551906  0.4444350062205942  0.1162348084288496
  0.4814691352340574  0.5185103651303322  0.1162039881743056
  0.4444292959512879  0.5555505637975031  0.1155838395845308
  0.4814681370698537  0.6296018449481267  0.1150728338959581
  0.4444287194545211  0.6666107000514359  0.1142476712412304
  0.4814715452086276  0.7406756948405544  0.1139554814561166
  0.4444439833372442  0.7777222546114899  0.1134008719511712
  0.4814679050172757  0.8518018831476297  0.1131697435314081
  0.4444406406418793  0.8888636314918656  0.1128541752739451
  0.4814707850223456  0.9629447283322534  0.1127462710581355
  0.5555453469114511  0.9999868288280140  0.1127641012672740
  0.5925742153423386  0.0740648664050099  0.1127056481096176
  0.5555403506908405  0.1111213624941172  0.1127759140475106
  0.5925685449514262  0.1852043956742193  0.1127941247499678
  0.5555439131324889  0.2222699086531605  0.1130055220295532
  0.5925786683533119  0.2963394912433301  0.1128552320484104
  0.5555347784668498  0.3333552860293238  0.1136099806240836
  0.5925776498054702  0.4073995901322078  0.1139494008849269
  0.5555496861330838  0.4444302368139930  0.1151127767858497
  0.5925767463863352  0.5184939523638050  0.1153215850790374
  0.5555565995870779  0.5555439203244674  0.1158687368627156
  0.5925717021733874  0.6295998286096278  0.1154295920489901
  0.5555341882000135  0.6666298510514395  0.1151648237353768
  0.5925698873639718  0.7406831863997851  0.1145855857804960
  0.5555409527496096  0.7777099715172398  0.1141414605043920
  0.5925669474780619  0.8517822284243834  0.1137012368365760
  0.5555471894662318  0.8888431161900812  0.1132725115114752
  0.5925734148322022  0.9629261616748721  0.1129610039181870
  0.6666500360466756  0.9999700257707858  0.1129366717510933
  0.7036889256086525  0.0740576035609166  0.1127441075723183
  0.6666509473359881  0.1111066623625092  0.1127021454491342
  0.7036849305083663  0.1851901475068374  0.1127078800828514
  0.6666437408376211  0.2222444401647294  0.1126834659987850
  0.7036582773519697  0.2963243415277503  0.1125365377107457
  0.6666258046635321  0.3333650604272904  0.1123937584317360
  0.7036553559703478  0.4074092201856203  0.1125031578424256
  0.6666289524423235  0.4444287193412748  0.1132725173605706
  0.7036506330961316  0.5184768411543743  0.1136744737711979
  0.6666373811466926  0.5555258383615111  0.1145465132172916
  0.7036465296936143  0.6295800400793112  0.1145128262234394
  0.6666294793484582  0.6666276114137020  0.1148484554858271
  0.7036508806674036  0.7406838230065063  0.1143955801038601
  0.6666247466236541  0.7777145347983208  0.1143354124153078
  0.7036591677084516  0.8517744073386240  0.1138484975666287
  0.6666424060540450  0.8888273722072952  0.1136144624188020
  0.7036757282045158  0.9629099012146298  0.1131771591096964
  0.7777558299335041  0.9999677077160527  0.1130052609131198
  0.8148072326424511  0.0740564360530698  0.1127580637314480
  0.7777658508959817  0.1111009276448840  0.1127046858365333
  0.8148082356894761  0.1851808246784046  0.1127001071176608
  0.7777598076563805  0.2222216554357885  0.1127371679683336
  0.8147920533332282  0.2963033812053411  0.1128186623975225
  0.7777364047113267  0.3333403236735037  0.1127315927604755
  0.8147654497567629  0.4074164728724341  0.1127353737693895
  0.7777020169024027  0.4444293952847644  0.1125675100513988
  0.8147455311423570  0.5184805159159254  0.1128953509023702
  0.7777048714872166  0.5555113203252304  0.1133032487634651
  0.8147496302988628  0.6295801262429137  0.1134685949051217
  0.7777112450383328  0.6666212466474448  0.1139050935782961
  0.8147571002232255  0.7406957181605236  0.1136747235536433
  0.7777136232322448  0.7777267781003516  0.1138824438788788
  0.8147659843389405  0.8517964732722234  0.1135129030948576
  0.7777267285890090  0.8888321975582585  0.1135180770103403
  0.8147871007492924  0.9629188461813456  0.1131202588629279
  0.8888683684376844  0.9999795158396552  0.1129117578557626
  0.9259271992678464  0.0740655099569949  0.1128043136044141
  0.8888832530048134  0.1111025749457824  0.1127271807661572
  0.9259379045312883  0.1851873747913615  0.1127448623422396
  0.8888882973128247  0.2222222993333389  0.1127354005117382
  0.9259339052040403  0.2963008357273438  0.1128247980084609
  0.8888762345926793  0.3333317460329397  0.1128735746712479
  0.9259163665842109  0.4074062447224946  0.1129477218461474
  0.8888501828464470  0.4444300018437701  0.1129410419958958
  0.9259033031753958  0.5185086156596839  0.1129767213874260
  0.8888310452430730  0.5555254398682834  0.1129756823417836
  0.9258904229309906  0.6296027817303127  0.1129791593650182
  0.8888351506804639  0.6666362514321520  0.1131160669227000
  0.9258887941614233  0.7407112765631396  0.1129873408475035
  0.8888391219774903  0.7777452413489883  0.1131757887136189
  0.9258995773974803  0.8518278202426544  0.1129877915975825
  0.8888497079311009  0.8888574263549742  0.1131090541531137
  0.9259136026505956  0.9629445022890621  0.1129309413583499
  0.2671511636388217  0.1337137144420737  0.3737713525965489
  0.3363643084284149  0.1870524254174484  0.3662221091128899
  0.3490357406846840  0.2554170356549292  0.3598285125830074
  0.2937706664594231  0.2697765435321813  0.3605002118636165
  0.2244199335982415  0.2162942368778928  0.3679833813921789
  0.2118643060345065  0.1481416704750700  0.3747925339783293
  0.3252277048177135  0.3449919088767786  0.3543146332552567
  0.4130792053059054  0.3222543249909862  0.3542058643958299
  0.3175069952345808  0.4454739222926989  0.3499422695763528
  0.3947911451633814  0.5597022789611756  0.3520292766310860
  0.2774183309573104  0.4810994058291413  0.3439381190420718
  0.3260586829095189  0.5530271513447929  0.3453319954562701
  0.3045319455582316  0.6023722955468500  0.3404233124599898
  0.2329988691968055  0.5777807549820295  0.3340331971730279
  0.1843561478319344  0.5057908101733872  0.3323820596615903
  0.2059682687091922  0.4564567768139085  0.3372406522654856
  0.5337423688573182  0.3894552855005387  0.3518486339421045
  0.6107863571926870  0.5037694857783421  0.3561138249009304
  0.6245382486380251  0.3476365189106545  0.3377858593060452
  0.6962384195132429  0.3726311727890632  0.3337608093585587
  0.7447495914478424  0.4445967099655448  0.3377160841875977
  0.7227914207385098  0.4935168780034616  0.3453704505688933
  0.6511262962949544  0.4684571166660945  0.3494402205228226
  0.6026464068685158  0.3965376574302653  0.3460405412000895
  0.6030814709503076  0.6041618027159927  0.3607137642834815
  0.5153975780487841  0.6268009075652046  0.3580064129811618
  0.6347083578450068  0.6795322843677667  0.3646847417219519
  0.7041589410573650  0.7331386273537461  0.3695183656084282
  0.7169267364426801  0.8015412087718587  0.3718676455300525
  0.6616853612277680  0.8159781007815994  0.3693554950600202
  0.5923153394392102  0.7624181486191191  0.3647161459923183
  0.5794789205039663  0.6938773277104175  0.3624720877728222
  0.3972609916870198  0.3754713551446827  0.3509880817349682
  0.2879201043101602  0.3767066373154080  0.3523784556632918
  0.3881678385024614  0.4939787522309942  0.3540355709131546
  0.4756446076947114  0.3281919353033089  0.3526476316339497
  0.5400287833970552  0.4550413475456452  0.3569963242047933
  0.6404169603269168  0.5724847331357452  0.3599419080561717
  0.5311800512710150  0.5736315913574330  0.3565475496185826
  0.4528608649912442  0.6209097275556559  0.3552096266351015
  0.4581234849313063  0.4678002685283005  0.4804049250457538
  0.2553811879172159  0.0799103851774916  0.3794748876048430
  0.3792806974257417  0.1764327604086589  0.3660214966465176
  0.1822713974069572  0.2280436664495582  0.3692826279739521
  0.1585863707446507  0.1052132445303258  0.3814531646377972
  0.3424368746012547  0.6578400671244893  0.3414610663993400
  0.2143656991184102  0.6147813829021587  0.3297210209204451
  0.1290872416528828  0.4885252073204711  0.3266821129509125
  0.1689098846112458  0.4007752740202264  0.3356581081394765
  0.5867720222923225  0.2922197584305835  0.3342361682699817
  0.7151454030167272  0.3360120105672948  0.3268593299164095
  0.8002081951857107  0.4621917875944774  0.3342571098989708
  0.7597380368219646  0.5491943007659259  0.3480430535478618
  0.7462972648592938  0.7213813433856089  0.3716234924426374
  0.7703455952771776  0.8446644162590147  0.3758083214991217
  0.6736170089643068  0.8699876174574825  0.3711990223368460
  0.5494795359716207  0.7731401540070024  0.3630170201860565
  0.4904237517773211  0.4527750773734454  0.5075172921398590
  0.4085649141635059  0.4363185011542541  0.5023482559182426
  0.4636989078222697  0.4740564171426485  0.3661902691141066
 
  0.00000000E+00  0.00000000E+00  0.00000000E+00
  0.00000000E+00  0.00000000E+00  0.00000000E+00
  0.00000000E+00  0.00000000E+00  0.00000000E+00
  0.00000000E+00  0.00000000E+00  0.00000000E+00
  0.00000000E+00  0.00000000E+00  0.00000000E+00
  0.00000000E+00  0.00000000E+00  0.00000000E+00
  0.00000000E+00  0.00000000E+00  0.00000000E+00
  0.00000000E+00  0.00000000E+00  0.00000000E+00
  0.00000000E+00  0.00000000E+00  0.00000000E+00
  0.00000000E+00  0.00000000E+00  0.00000000E+00
  0.00000000E+00  0.00000000E+00  0.00000000E+00
  0.00000000E+00  0.00000000E+00  0.00000000E+00
  0.00000000E+00  0.00000000E+00  0.00000000E+00
  0.00000000E+00  0.00000000E+00  0.00000000E+00
  0.00000000E+00  0.00000000E+00  0.00000000E+00
  0.00000000E+00  0.00000000E+00  0.00000000E+00
  0.00000000E+00  0.00000000E+00  0.00000000E+00
  0.00000000E+00  0.00000000E+00  0.00000000E+00
  0.00000000E+00  0.00000000E+00  0.00000000E+00
  0.00000000E+00  0.00000000E+00  0.00000000E+00
  0.00000000E+00  0.00000000E+00  0.00000000E+00
  0.00000000E+00  0.00000000E+00  0.00000000E+00
  0.00000000E+00  0.00000000E+00  0.00000000E+00
  0.00000000E+00  0.00000000E+00  0.00000000E+00
  0.00000000E+00  0.00000000E+00  0.00000000E+00
  0.00000000E+00  0.00000000E+00  0.00000000E+00
  0.00000000E+00  0.00000000E+00  0.00000000E+00
  0.00000000E+00  0.00000000E+00  0.00000000E+00
  0.00000000E+00  0.00000000E+00  0.00000000E+00
  0.00000000E+00  0.00000000E+00  0.00000000E+00
  0.00000000E+00  0.00000000E+00  0.00000000E+00
  0.00000000E+00  0.00000000E+00  0.00000000E+00
  0.00000000E+00  0.00000000E+00  0.00000000E+00
  0.00000000E+00  0.00000000E+00  0.00000000E+00
  0.00000000E+00  0.00000000E+00  0.00000000E+00
  0.00000000E+00  0.00000000E+00  0.00000000E+00
  0.00000000E+00  0.00000000E+00  0.00000000E+00
  0.00000000E+00  0.00000000E+00  0.00000000E+00
  0.00000000E+00  0.00000000E+00  0.00000000E+00
  0.00000000E+00  0.00000000E+00  0.00000000E+00
  0.00000000E+00  0.00000000E+00  0.00000000E+00
  0.00000000E+00  0.00000000E+00  0.00000000E+00
  0.00000000E+00  0.00000000E+00  0.00000000E+00
  0.00000000E+00  0.00000000E+00  0.00000000E+00
  0.00000000E+00  0.00000000E+00  0.00000000E+00
  0.00000000E+00  0.00000000E+00  0.00000000E+00
  0.00000000E+00  0.00000000E+00  0.00000000E+00
  0.00000000E+00  0.00000000E+00  0.00000000E+00
  0.00000000E+00  0.00000000E+00  0.00000000E+00
  0.00000000E+00  0.00000000E+00  0.00000000E+00
  0.00000000E+00  0.00000000E+00  0.00000000E+00
  0.00000000E+00  0.00000000E+00  0.00000000E+00
  0.00000000E+00  0.00000000E+00  0.00000000E+00
  0.00000000E+00  0.00000000E+00  0.00000000E+00
  0.00000000E+00  0.00000000E+00  0.00000000E+00
  0.00000000E+00  0.00000000E+00  0.00000000E+00
  0.00000000E+00  0.00000000E+00  0.00000000E+00
  0.00000000E+00  0.00000000E+00  0.00000000E+00
  0.00000000E+00  0.00000000E+00  0.00000000E+00
  0.00000000E+00  0.00000000E+00  0.00000000E+00
  0.00000000E+00  0.00000000E+00  0.00000000E+00
  0.00000000E+00  0.00000000E+00  0.00000000E+00
  0.00000000E+00  0.00000000E+00  0.00000000E+00
  0.00000000E+00  0.00000000E+00  0.00000000E+00
  0.00000000E+00  0.00000000E+00  0.00000000E+00
  0.00000000E+00  0.00000000E+00  0.00000000E+00
  0.00000000E+00  0.00000000E+00  0.00000000E+00
  0.00000000E+00  0.00000000E+00  0.00000000E+00
  0.00000000E+00  0.00000000E+00  0.00000000E+00
  0.00000000E+00  0.00000000E+00  0.00000000E+00
  0.00000000E+00  0.00000000E+00  0.00000000E+00
  0.00000000E+00  0.00000000E+00  0.00000000E+00
  0.00000000E+00  0.00000000E+00  0.00000000E+00
  0.00000000E+00  0.00000000E+00  0.00000000E+00
  0.00000000E+00  0.00000000E+00  0.00000000E+00
  0.00000000E+00  0.00000000E+00  0.00000000E+00
  0.00000000E+00  0.00000000E+00  0.00000000E+00
  0.00000000E+00  0.00000000E+00  0.00000000E+00
  0.00000000E+00  0.00000000E+00  0.00000000E+00
  0.00000000E+00  0.00000000E+00  0.00000000E+00
  0.00000000E+00  0.00000000E+00  0.00000000E+00
  0.00000000E+00  0.00000000E+00  0.00000000E+00
  0.00000000E+00  0.00000000E+00  0.00000000E+00
  0.00000000E+00  0.00000000E+00  0.00000000E+00
  0.00000000E+00  0.00000000E+00  0.00000000E+00
  0.00000000E+00  0.00000000E+00  0.00000000E+00
  0.00000000E+00  0.00000000E+00  0.00000000E+00
  0.00000000E+00  0.00000000E+00  0.00000000E+00
  0.00000000E+00  0.00000000E+00  0.00000000E+00
  0.00000000E+00  0.00000000E+00  0.00000000E+00
  0.00000000E+00  0.00000000E+00  0.00000000E+00
  0.00000000E+00  0.00000000E+00  0.00000000E+00
  0.00000000E+00  0.00000000E+00  0.00000000E+00
  0.00000000E+00  0.00000000E+00  0.00000000E+00
  0.00000000E+00  0.00000000E+00  0.00000000E+00
  0.00000000E+00  0.00000000E+00  0.00000000E+00
  0.00000000E+00  0.00000000E+00  0.00000000E+00
  0.00000000E+00  0.00000000E+00  0.00000000E+00
  0.00000000E+00  0.00000000E+00  0.00000000E+00
  0.00000000E+00  0.00000000E+00  0.00000000E+00
  0.00000000E+00  0.00000000E+00  0.00000000E+00
  0.00000000E+00  0.00000000E+00  0.00000000E+00
  0.00000000E+00  0.00000000E+00  0.00000000E+00
  0.00000000E+00  0.00000000E+00  0.00000000E+00
  0.00000000E+00  0.00000000E+00  0.00000000E+00
  0.00000000E+00  0.00000000E+00  0.00000000E+00
  0.00000000E+00  0.00000000E+00  0.00000000E+00
  0.00000000E+00  0.00000000E+00  0.00000000E+00
  0.00000000E+00  0.00000000E+00  0.00000000E+00
  0.00000000E+00  0.00000000E+00  0.00000000E+00
  0.00000000E+00  0.00000000E+00  0.00000000E+00
  0.00000000E+00  0.00000000E+00  0.00000000E+00
  0.00000000E+00  0.00000000E+00  0.00000000E+00
  0.00000000E+00  0.00000000E+00  0.00000000E+00
  0.00000000E+00  0.00000000E+00  0.00000000E+00
  0.00000000E+00  0.00000000E+00  0.00000000E+00
  0.00000000E+00  0.00000000E+00  0.00000000E+00
  0.00000000E+00  0.00000000E+00  0.00000000E+00
  0.00000000E+00  0.00000000E+00  0.00000000E+00
  0.00000000E+00  0.00000000E+00  0.00000000E+00
  0.00000000E+00  0.00000000E+00  0.00000000E+00
  0.00000000E+00  0.00000000E+00  0.00000000E+00
  0.00000000E+00  0.00000000E+00  0.00000000E+00
  0.00000000E+00  0.00000000E+00  0.00000000E+00
  0.00000000E+00  0.00000000E+00  0.00000000E+00
  0.00000000E+00  0.00000000E+00  0.00000000E+00
  0.00000000E+00  0.00000000E+00  0.00000000E+00
  0.00000000E+00  0.00000000E+00  0.00000000E+00
  0.00000000E+00  0.00000000E+00  0.00000000E+00
  0.00000000E+00  0.00000000E+00  0.00000000E+00
  0.00000000E+00  0.00000000E+00  0.00000000E+00
  0.00000000E+00  0.00000000E+00  0.00000000E+00
  0.00000000E+00  0.00000000E+00  0.00000000E+00
  0.00000000E+00  0.00000000E+00  0.00000000E+00
  0.00000000E+00  0.00000000E+00  0.00000000E+00
  0.00000000E+00  0.00000000E+00  0.00000000E+00
  0.00000000E+00  0.00000000E+00  0.00000000E+00
  0.00000000E+00  0.00000000E+00  0.00000000E+00
  0.00000000E+00  0.00000000E+00  0.00000000E+00
  0.00000000E+00  0.00000000E+00  0.00000000E+00
  0.00000000E+00  0.00000000E+00  0.00000000E+00
  0.00000000E+00  0.00000000E+00  0.00000000E+00
  0.00000000E+00  0.00000000E+00  0.00000000E+00
  0.00000000E+00  0.00000000E+00  0.00000000E+00
  0.00000000E+00  0.00000000E+00  0.00000000E+00
  0.00000000E+00  0.00000000E+00  0.00000000E+00
  0.00000000E+00  0.00000000E+00  0.00000000E+00
  0.00000000E+00  0.00000000E+00  0.00000000E+00
  0.00000000E+00  0.00000000E+00  0.00000000E+00
  0.00000000E+00  0.00000000E+00  0.00000000E+00
  0.00000000E+00  0.00000000E+00  0.00000000E+00
  0.00000000E+00  0.00000000E+00  0.00000000E+00
  0.00000000E+00  0.00000000E+00  0.00000000E+00
  0.00000000E+00  0.00000000E+00  0.00000000E+00
  0.00000000E+00  0.00000000E+00  0.00000000E+00
  0.00000000E+00  0.00000000E+00  0.00000000E+00
  0.00000000E+00  0.00000000E+00  0.00000000E+00
  0.00000000E+00  0.00000000E+00  0.00000000E+00
  0.00000000E+00  0.00000000E+00  0.00000000E+00
  0.00000000E+00  0.00000000E+00  0.00000000E+00
  0.00000000E+00  0.00000000E+00  0.00000000E+00
  0.00000000E+00  0.00000000E+00  0.00000000E+00
  0.00000000E+00  0.00000000E+00  0.00000000E+00
  0.00000000E+00  0.00000000E+00  0.00000000E+00
  0.00000000E+00  0.00000000E+00  0.00000000E+00
  0.00000000E+00  0.00000000E+00  0.00000000E+00
  0.00000000E+00  0.00000000E+00  0.00000000E+00
  0.00000000E+00  0.00000000E+00  0.00000000E+00
  0.00000000E+00  0.00000000E+00  0.00000000E+00
  0.00000000E+00  0.00000000E+00  0.00000000E+00
  0.00000000E+00  0.00000000E+00  0.00000000E+00
  0.00000000E+00  0.00000000E+00  0.00000000E+00
  0.00000000E+00  0.00000000E+00  0.00000000E+00
  0.00000000E+00  0.00000000E+00  0.00000000E+00
  0.00000000E+00  0.00000000E+00  0.00000000E+00
  0.00000000E+00  0.00000000E+00  0.00000000E+00
  0.00000000E+00  0.00000000E+00  0.00000000E+00
  0.00000000E+00  0.00000000E+00  0.00000000E+00
  0.00000000E+00  0.00000000E+00  0.00000000E+00
  0.00000000E+00  0.00000000E+00  0.00000000E+00
  0.00000000E+00  0.00000000E+00  0.00000000E+00
  0.00000000E+00  0.00000000E+00  0.00000000E+00
  0.00000000E+00  0.00000000E+00  0.00000000E+00
  0.00000000E+00  0.00000000E+00  0.00000000E+00
  0.00000000E+00  0.00000000E+00  0.00000000E+00
  0.00000000E+00  0.00000000E+00  0.00000000E+00
  0.00000000E+00  0.00000000E+00  0.00000000E+00
  0.00000000E+00  0.00000000E+00  0.00000000E+00
  0.00000000E+00  0.00000000E+00  0.00000000E+00
  0.00000000E+00  0.00000000E+00  0.00000000E+00
  0.00000000E+00  0.00000000E+00  0.00000000E+00
  0.00000000E+00  0.00000000E+00  0.00000000E+00
  0.00000000E+00  0.00000000E+00  0.00000000E+00
  0.00000000E+00  0.00000000E+00  0.00000000E+00
  0.00000000E+00  0.00000000E+00  0.00000000E+00
  0.00000000E+00  0.00000000E+00  0.00000000E+00
  0.00000000E+00  0.00000000E+00  0.00000000E+00
  0.00000000E+00  0.00000000E+00  0.00000000E+00
  0.00000000E+00  0.00000000E+00  0.00000000E+00
  0.00000000E+00  0.00000000E+00  0.00000000E+00
  0.00000000E+00  0.00000000E+00  0.00000000E+00
  0.00000000E+00  0.00000000E+00  0.00000000E+00
  0.00000000E+00  0.00000000E+00  0.00000000E+00
  0.00000000E+00  0.00000000E+00  0.00000000E+00
  0.00000000E+00  0.00000000E+00  0.00000000E+00
  0.00000000E+00  0.00000000E+00  0.00000000E+00
  0.00000000E+00  0.00000000E+00  0.00000000E+00
  0.00000000E+00  0.00000000E+00  0.00000000E+00
  0.00000000E+00  0.00000000E+00  0.00000000E+00
  0.00000000E+00  0.00000000E+00  0.00000000E+00
  0.00000000E+00  0.00000000E+00  0.00000000E+00
  0.00000000E+00  0.00000000E+00  0.00000000E+00
  0.00000000E+00  0.00000000E+00  0.00000000E+00
  0.00000000E+00  0.00000000E+00  0.00000000E+00
  0.00000000E+00  0.00000000E+00  0.00000000E+00
  0.00000000E+00  0.00000000E+00  0.00000000E+00
  0.00000000E+00  0.00000000E+00  0.00000000E+00
  0.00000000E+00  0.00000000E+00  0.00000000E+00
  0.00000000E+00  0.00000000E+00  0.00000000E+00
  0.00000000E+00  0.00000000E+00  0.00000000E+00
  0.00000000E+00  0.00000000E+00  0.00000000E+00
  0.00000000E+00  0.00000000E+00  0.00000000E+00
