C194N9H18Fe1                            
   1.00000000000000     
    22.2398941508588770    0.0000000000000000    0.0000000000000000
   -11.1217622678036907   19.2592651962598111    0.0000000000000000
     0.0000000000000010    0.0000000000000017   15.9818867381571152
   C    N    H    Cu
   194     9    18     1
Direct
  0.9999990586854821  0.0000051474649254  0.1128322471137295
  0.0370630390689328  0.0740919686564681  0.1129822084242704
  0.0000147403254473  0.1111242843282554  0.1128663307293394
  0.0370737288000313  0.1852056038207479  0.1129859566019462
  0.0000247098415258  0.2222380814327636  0.1128267378794447
  0.0370800648422573  0.2963187449821163  0.1128488611277305
  0.0000228029364919  0.3333449282357321  0.1127793337904492
  0.0370836640710195  0.4074261107073625  0.1127098141220557
  0.0000089467953686  0.4444427737902004  0.1128204273495399
  0.0370572636391131  0.5185159931978944  0.1127923727174789
  0.9999913770742168  0.5555438004874915  0.1128716240075676
  0.0370313499085029  0.6296167837541091  0.1128020387242969
  0.9999734021213342  0.6666469650547597  0.1127815631091380
  0.0370202751701925  0.7407270237225845  0.1126843873885193
  0.9999718784284752  0.7777629781675515  0.1126945285983609
  0.0370247706620219  0.8518446654382146  0.1126751037501350
  0.9999832080013036  0.8888839449474659  0.1127328151933611
  0.0370414129475094  0.9629689690721435  0.1128282103670131
  0.1111272536462948  0.0000337903887555  0.1130224280582226
  0.1481862797772777  0.0741174259369615  0.1133559797304784
  0.1111471527408554  0.1111520939758890  0.1133314896558488
  0.1482015234251648  0.1852268938428381  0.1136047645400495
  0.1111591044377533  0.2222580830559053  0.1133665417547505
  0.1482106743429767  0.2963366473154636  0.1134098091544828
  0.1111688149526913  0.3333745850337380  0.1129819263679792
  0.1482144497087035  0.4074418626704315  0.1126652812229807
  0.1111702898139697  0.4444648395926691  0.1124534233271888
  0.1482106861325079  0.5185192639576144  0.1122297942715136
  0.1111469964478644  0.5555332061267677  0.1125563678671142
  0.1481724615268618  0.6296089612969098  0.1126404574677267
  0.1111170155694197  0.6666481201599055  0.1127412747490553
  0.1481490372571557  0.7407269710928688  0.1126782801679269
  0.1111017395725327  0.7777682286060710  0.1126469669425063
  0.1481443599817780  0.8518494904647511  0.1126635035112713
  0.1111072963696458  0.8888967758560398  0.1127125763537506
  0.1481575280453313  0.9629832310815019  0.1129335253914547
  0.2222363018037683  0.0000436423977277  0.1130801614024506
  0.2592739110441045  0.0741264160929944  0.1134335324582878
  0.2222535036672753  0.1111729982611394  0.1136371364013726
  0.2592904234329225  0.1852359689480494  0.1140268147924886
  0.2222660164021875  0.2222730640733914  0.1140231527993976
  0.2592890965004315  0.2963312522975130  0.1142678590447801
  0.2222711386512515  0.3333756338982923  0.1138388536910213
  0.2592842358057581  0.4074317558123681  0.1136794589396075
  0.2222693428144922  0.4444706709467710  0.1128732422682432
  0.2592886761948279  0.5185151886078714  0.1126207408166167
  0.2222618431745076  0.5555348407028120  0.1121355643800399
  0.2592819526267292  0.6295777104060676  0.1122689831259152
  0.2222519941123693  0.6666246046581463  0.1124936702609460
  0.2592677186439047  0.7407069228029854  0.1126484812536575
  0.2222271085434429  0.7777595527991110  0.1126649476966293
  0.2592609833974393  0.8518436297006389  0.1126665610623618
  0.2222231252219800  0.8888946764477268  0.1127071942470224
  0.2592614940357052  0.9629808969386815  0.1128810570191021
  0.3333367924313961  0.0000247151250008  0.1128969940140294
  0.3703667886241604  0.0741123881256129  0.1131487186969338
  0.3333413321108267  0.1111713374340511  0.1134908906031740
  0.3703732314378314  0.1852404413834350  0.1138204488193892
  0.3333407404022140  0.2222682469933375  0.1142016600802975
  0.3703796576060441  0.2963272342570562  0.1146074875145260
  0.3333467471663880  0.3333625509840559  0.1147288355193865
  0.3703719488291881  0.4074210713252384  0.1149630607356471
  0.3333399576702334  0.4444566498651312  0.1143777663034271
  0.3703704412484612  0.5185131067451820  0.1142179702859565
  0.3333325967553193  0.5555348048764017  0.1132927308380474
  0.3703756652382779  0.6295820396906038  0.1132091661870973
  0.3333357612125951  0.6666037806356329  0.1127020271046248
  0.3703683350581741  0.7406787695201160  0.1128897218174885
  0.3333430321652884  0.7777447048815702  0.1127335045261759
  0.3703705165922813  0.8518277150800913  0.1127185415714749
  0.3333357030540256  0.8888824602185466  0.1126712092716460
  0.3703671285669330  0.9629664404816296  0.1127240468077915
  0.4444406007148203  0.0000049366067358  0.1127009449098821
  0.4814691164569851  0.0740887385863687  0.1127838485357344
  0.4444409847538822  0.1111512186571773  0.1130441420841208
  0.4814666240102596  0.1852337415524943  0.1131752771154737
  0.4444356413514257  0.2222786203429479  0.1136081523998698
  0.4814812941437125  0.2963393324553252  0.1137851535811123
  0.4444414400356180  0.3333579556213380  0.1144862979802781
  0.4814736290315622  0.4074088219759489  0.1148694166860906
  0.4444355835906464  0.4444448350490333  0.1152564896626700
  0.4814694927015566  0.5185075696532664  0.1152320444724495
  0.4444334023216854  0.5555393210063855  0.1147801086842506
  0.4814700500512288  0.6295912216608670  0.1144394048484898
  0.4444284770572793  0.6666066959384764  0.1137978096637582
  0.4814734583349036  0.7406701812285732  0.1136177291075171
  0.4444439100146766  0.7777193625585852  0.1131914015408100
  0.4814705167387388  0.8518033377426235  0.1130258553372414
  0.4444428277362817  0.8888636398169751  0.1127778421054728
  0.4814726073678912  0.9629483841674471  0.1126940176424327
  0.5555444460467527  0.9999865476139860  0.1127078889454083
  0.5925755676765263  0.0740701102798624  0.1126617366798186
  0.5555414538786749  0.1111251724064246  0.1127107058313968
  0.5925686614000014  0.1852100097328417  0.1126993880874707
  0.5555435609752521  0.2222768387826193  0.1128271277853159
  0.5925755018833883  0.2963454538482964  0.1126146002161192
  0.5555308643868244  0.3333622072395599  0.1132028768502948
  0.5925718269474061  0.4074099222973260  0.1134553499796951
  0.5555368751814669  0.4444358114345661  0.1143969359181227
  0.5925676885807007  0.5184971781349077  0.1145966854173750
  0.5555359386685055  0.5555331885828281  0.1150308921979502
  0.5925624535792906  0.6295900036810735  0.1147567781595100
  0.5555283187066991  0.6666216501175057  0.1145632976733353
  0.5925700054081702  0.7406793281259354  0.1141387285137583
  0.5555387840309791  0.7777072961460050  0.1137876921342453
  0.5925703183378062  0.8517808692280937  0.1134503298735368
  0.5555450157266506  0.8888420419391636  0.1131101441120350
  0.5925751599063389  0.9629282222247681  0.1128633319743884
  0.6666501000056257  0.9999714366219266  0.1128428353609578
  0.7036897716413719  0.0740590697341759  0.1126926958682617
  0.6666512250839816  0.1111097949786668  0.1126631226296766
  0.7036838597131165  0.1851930245269457  0.1126662100812652
  0.6666437714293565  0.2222483001248179  0.1126103506107583
  0.7036566267148245  0.2963291501437766  0.1124345085796676
  0.6666265459534557  0.3333705635676409  0.1122167123976681
  0.7036508191692121  0.4074128216614312  0.1122941998978106
  0.6666229386881497  0.4444328296366820  0.1129189257967553
  0.7036427550948474  0.5184805891657405  0.1132960062515309
  0.6666231819786077  0.5555219464412886  0.1140178374358598
  0.7036404662329332  0.6295798142588183  0.1140488199059391
  0.6666205010512130  0.6666219972185559  0.1143366289059244
  0.7036467337782994  0.7406806807560926  0.1140044852566717
  0.6666203884433060  0.7777121250280956  0.1139593504436007
  0.7036579571936414  0.8517739718452830  0.1135739686197752
  0.6666390616885280  0.8888249339122041  0.1133831582489861
  0.7036768381830143  0.9629106485180188  0.1130340743908320
  0.7777565069001255  0.9999702724454949  0.1128938220906548
  0.8148056900261125  0.0740562724457376  0.1126929586506904
  0.7777674648161081  0.1111033996456285  0.1126582961316274
  0.8148091970475235  0.1851845462237875  0.1126645681311800
  0.7777621249326359  0.2222256508420415  0.1126975045605292
  0.8147929294551517  0.2963062551715367  0.1127649706615799
  0.7777361407021317  0.3333460676898952  0.1126517411103833
  0.8147622608715537  0.4074179327451191  0.1126377919527073
  0.7776990134746526  0.4444314234492097  0.1124210416875684
  0.8147412392343938  0.5184846367632971  0.1127337143754517
  0.7776993360532529  0.5555102066067334  0.1130549744263547
  0.8147458918265258  0.6295826910486113  0.1132314046598140
  0.7777035126035585  0.6666187640779526  0.1135858414916768
  0.8147521151064581  0.7406944976163459  0.1134188019687059
  0.7777083928694992  0.7777239719857505  0.1135952159593501
  0.8147636401483780  0.8517970417962601  0.1133035433147214
  0.7777261593522766  0.8888324875780924  0.1133114447369366
  0.8147860860970226  0.9629185456115010  0.1129861445047098
  0.8888699930138415  0.9999824675222229  0.1128122717707356
  0.9259281163039716  0.0740676374089233  0.1127239374791671
  0.8888876038318756  0.1111072809722060  0.1126651152243596
  0.9259400787796537  0.1851901366054207  0.1126861961451269
  0.8888913505458191  0.2222260834552330  0.1126909619076457
  0.9259355463839753  0.2963039515796666  0.1127695975588736
  0.8888777627847801  0.3333354364878716  0.1128161706290740
  0.9259171909031920  0.4074082233975176  0.1128761419317144
  0.8888510598797907  0.4444351966195228  0.1128556955066813
  0.9259016625577274  0.5185099281810466  0.1128887320210907
  0.8888278214045755  0.5555263804534007  0.1128631564733524
  0.9258863362095866  0.6296056539839228  0.1128775407494658
  0.8888310914169679  0.6666340949928795  0.1129724576410922
  0.9258860170917274  0.7407142011824703  0.1128712883059180
  0.8888368366448418  0.7777455852410213  0.1130197912157769
  0.9258976290461192  0.8518281536657710  0.1128694178058112
  0.8888487036492450  0.8888593968491776  0.1129707324154055
  0.9259119815654699  0.9629448227999902  0.1128258454775235
  0.2664956617997802  0.1327800577360279  0.3747075568059941
  0.3357824599949808  0.1861807547957639  0.3673107107262013
  0.3485197597182861  0.2544714666686190  0.3610078826783933
  0.2932616366382703  0.2689942821187969  0.3617733551959219
  0.2240309363461037  0.2155866088302787  0.3692427202586970
  0.2113538835720306  0.1473035928839863  0.3757968329222479
  0.3250000547009435  0.3445472504605220  0.3548872377263592
  0.4128296351581682  0.3215209089974280  0.3544066364630609
  0.3173336803176952  0.4459826357348291  0.3481855495306689
  0.3945702140534735  0.5605693160325984  0.3495230673495726
  0.2769126593592333  0.4815447310889667  0.3439694625901311
  0.3255199704770462  0.5536937578591434  0.3451681107345550
  0.3037411766333804  0.6028573302199760  0.3410782341188678
  0.2321921317134823  0.5780916409786059  0.3347417011734635
  0.1837121350749769  0.5060738857734250  0.3330382704551909
  0.2054384430167033  0.4568243500964542  0.3379885511358793
  0.5343523869346427  0.3892013290996914  0.3500967699310564
  0.6115304276757598  0.5038721962886683  0.3545150940576036
  0.6254060431281943  0.3474445423961754  0.3380398696022695
  0.6970895184687222  0.3724332829032662  0.3342230426671193
  0.7455695484184872  0.4444018819129596  0.3383536178751427
  0.7236539601077538  0.4933511390740293  0.3459204877402229
  0.6520081748055375  0.4684497066536153  0.3490826175019279
  0.6034547030147195  0.3963307485119785  0.3455790058909969
  0.6037515497338859  0.6052214259003605  0.3597571781148687
  0.5160893202109449  0.6281681036828530  0.3567972469458383
  0.6356232811305560  0.6809169044257004  0.3651596119465665
  0.7049291007759493  0.7343697729194290  0.3705076920619703
  0.7178026897881509  0.8029031130461277  0.3728265473850882
  0.6627310841599368  0.8174364779394807  0.3702282335594873
  0.5932795621539881  0.7638456883271942  0.3655685849411725
  0.5804197090064704  0.6954224703174035  0.3629594675757346
  0.3964325360675716  0.3738672284054942  0.3513118392052945
  0.2881986555884168  0.3769847649477924  0.3520798614430731
  0.3871949679811877  0.4950758108584736  0.3493474021664369
  0.4757512455992909  0.3278725996939045  0.3516849818702852
  0.5415874761198509  0.4547049113093564  0.3541162692444431
  0.6406240830746839  0.5728269117954099  0.3589073865070489
  0.5325718151707619  0.5760010491925769  0.3544370196536804
  0.4531758680723428  0.6218305430934450  0.3536712040521479
  0.4553915553586592  0.4675086882039352  0.4973198414365854
  0.2546933340245161  0.0789579729835808  0.3801492034640859
  0.3787037486003229  0.1755495916182781  0.3669836665226427
  0.1818999350097528  0.2273770226160039  0.3705502586251654
  0.1580306151017155  0.1044289524101956  0.3821974395354815
  0.3416011171891498  0.6583286579209684  0.3422569095679222
  0.2134351616480217  0.6149829429029907  0.3302932156534695
  0.1284364979855468  0.4886666938308366  0.3270530707429629
  0.1684967808963478  0.4011208470931891  0.3364889756247322
  0.5875942580780986  0.2920328719628671  0.3346347393415243
  0.7160114060526226  0.3358339898820688  0.3273014951122235
  0.8010290792530839  0.4620000588122508  0.3350161903351676
  0.7605954634056218  0.5490094811355490  0.3489899873015432
  0.7469996260609975  0.7225148420715541  0.3727083776547815
  0.7712622466522490  0.8459311009327379  0.3766300920632659
  0.6746839933853579  0.8714496431160796  0.3718586329221978
  0.5503980255909227  0.7745078923204645  0.3638687889601684
  0.4860198507933404  0.4476889310381011  0.5182541054486407
  0.4055295463438924  0.4277601693039941  0.5100218841731277
  0.4642518901880521  0.4749645960249111  0.3631119217610532
 
  0.00000000E+00  0.00000000E+00  0.00000000E+00
  0.00000000E+00  0.00000000E+00  0.00000000E+00
  0.00000000E+00  0.00000000E+00  0.00000000E+00
  0.00000000E+00  0.00000000E+00  0.00000000E+00
  0.00000000E+00  0.00000000E+00  0.00000000E+00
  0.00000000E+00  0.00000000E+00  0.00000000E+00
  0.00000000E+00  0.00000000E+00  0.00000000E+00
  0.00000000E+00  0.00000000E+00  0.00000000E+00
  0.00000000E+00  0.00000000E+00  0.00000000E+00
  0.00000000E+00  0.00000000E+00  0.00000000E+00
  0.00000000E+00  0.00000000E+00  0.00000000E+00
  0.00000000E+00  0.00000000E+00  0.00000000E+00
  0.00000000E+00  0.00000000E+00  0.00000000E+00
  0.00000000E+00  0.00000000E+00  0.00000000E+00
  0.00000000E+00  0.00000000E+00  0.00000000E+00
  0.00000000E+00  0.00000000E+00  0.00000000E+00
  0.00000000E+00  0.00000000E+00  0.00000000E+00
  0.00000000E+00  0.00000000E+00  0.00000000E+00
  0.00000000E+00  0.00000000E+00  0.00000000E+00
  0.00000000E+00  0.00000000E+00  0.00000000E+00
  0.00000000E+00  0.00000000E+00  0.00000000E+00
  0.00000000E+00  0.00000000E+00  0.00000000E+00
  0.00000000E+00  0.00000000E+00  0.00000000E+00
  0.00000000E+00  0.00000000E+00  0.00000000E+00
  0.00000000E+00  0.00000000E+00  0.00000000E+00
  0.00000000E+00  0.00000000E+00  0.00000000E+00
  0.00000000E+00  0.00000000E+00  0.00000000E+00
  0.00000000E+00  0.00000000E+00  0.00000000E+00
  0.00000000E+00  0.00000000E+00  0.00000000E+00
  0.00000000E+00  0.00000000E+00  0.00000000E+00
  0.00000000E+00  0.00000000E+00  0.00000000E+00
  0.00000000E+00  0.00000000E+00  0.00000000E+00
  0.00000000E+00  0.00000000E+00  0.00000000E+00
  0.00000000E+00  0.00000000E+00  0.00000000E+00
  0.00000000E+00  0.00000000E+00  0.00000000E+00
  0.00000000E+00  0.00000000E+00  0.00000000E+00
  0.00000000E+00  0.00000000E+00  0.00000000E+00
  0.00000000E+00  0.00000000E+00  0.00000000E+00
  0.00000000E+00  0.00000000E+00  0.00000000E+00
  0.00000000E+00  0.00000000E+00  0.00000000E+00
  0.00000000E+00  0.00000000E+00  0.00000000E+00
  0.00000000E+00  0.00000000E+00  0.00000000E+00
  0.00000000E+00  0.00000000E+00  0.00000000E+00
  0.00000000E+00  0.00000000E+00  0.00000000E+00
  0.00000000E+00  0.00000000E+00  0.00000000E+00
  0.00000000E+00  0.00000000E+00  0.00000000E+00
  0.00000000E+00  0.00000000E+00  0.00000000E+00
  0.00000000E+00  0.00000000E+00  0.00000000E+00
  0.00000000E+00  0.00000000E+00  0.00000000E+00
  0.00000000E+00  0.00000000E+00  0.00000000E+00
  0.00000000E+00  0.00000000E+00  0.00000000E+00
  0.00000000E+00  0.00000000E+00  0.00000000E+00
  0.00000000E+00  0.00000000E+00  0.00000000E+00
  0.00000000E+00  0.00000000E+00  0.00000000E+00
  0.00000000E+00  0.00000000E+00  0.00000000E+00
  0.00000000E+00  0.00000000E+00  0.00000000E+00
  0.00000000E+00  0.00000000E+00  0.00000000E+00
  0.00000000E+00  0.00000000E+00  0.00000000E+00
  0.00000000E+00  0.00000000E+00  0.00000000E+00
  0.00000000E+00  0.00000000E+00  0.00000000E+00
  0.00000000E+00  0.00000000E+00  0.00000000E+00
  0.00000000E+00  0.00000000E+00  0.00000000E+00
  0.00000000E+00  0.00000000E+00  0.00000000E+00
  0.00000000E+00  0.00000000E+00  0.00000000E+00
  0.00000000E+00  0.00000000E+00  0.00000000E+00
  0.00000000E+00  0.00000000E+00  0.00000000E+00
  0.00000000E+00  0.00000000E+00  0.00000000E+00
  0.00000000E+00  0.00000000E+00  0.00000000E+00
  0.00000000E+00  0.00000000E+00  0.00000000E+00
  0.00000000E+00  0.00000000E+00  0.00000000E+00
  0.00000000E+00  0.00000000E+00  0.00000000E+00
  0.00000000E+00  0.00000000E+00  0.00000000E+00
  0.00000000E+00  0.00000000E+00  0.00000000E+00
  0.00000000E+00  0.00000000E+00  0.00000000E+00
  0.00000000E+00  0.00000000E+00  0.00000000E+00
  0.00000000E+00  0.00000000E+00  0.00000000E+00
  0.00000000E+00  0.00000000E+00  0.00000000E+00
  0.00000000E+00  0.00000000E+00  0.00000000E+00
  0.00000000E+00  0.00000000E+00  0.00000000E+00
  0.00000000E+00  0.00000000E+00  0.00000000E+00
  0.00000000E+00  0.00000000E+00  0.00000000E+00
  0.00000000E+00  0.00000000E+00  0.00000000E+00
  0.00000000E+00  0.00000000E+00  0.00000000E+00
  0.00000000E+00  0.00000000E+00  0.00000000E+00
  0.00000000E+00  0.00000000E+00  0.00000000E+00
  0.00000000E+00  0.00000000E+00  0.00000000E+00
  0.00000000E+00  0.00000000E+00  0.00000000E+00
  0.00000000E+00  0.00000000E+00  0.00000000E+00
  0.00000000E+00  0.00000000E+00  0.00000000E+00
  0.00000000E+00  0.00000000E+00  0.00000000E+00
  0.00000000E+00  0.00000000E+00  0.00000000E+00
  0.00000000E+00  0.00000000E+00  0.00000000E+00
  0.00000000E+00  0.00000000E+00  0.00000000E+00
  0.00000000E+00  0.00000000E+00  0.00000000E+00
  0.00000000E+00  0.00000000E+00  0.00000000E+00
  0.00000000E+00  0.00000000E+00  0.00000000E+00
  0.00000000E+00  0.00000000E+00  0.00000000E+00
  0.00000000E+00  0.00000000E+00  0.00000000E+00
  0.00000000E+00  0.00000000E+00  0.00000000E+00
  0.00000000E+00  0.00000000E+00  0.00000000E+00
  0.00000000E+00  0.00000000E+00  0.00000000E+00
  0.00000000E+00  0.00000000E+00  0.00000000E+00
  0.00000000E+00  0.00000000E+00  0.00000000E+00
  0.00000000E+00  0.00000000E+00  0.00000000E+00
  0.00000000E+00  0.00000000E+00  0.00000000E+00
  0.00000000E+00  0.00000000E+00  0.00000000E+00
  0.00000000E+00  0.00000000E+00  0.00000000E+00
  0.00000000E+00  0.00000000E+00  0.00000000E+00
  0.00000000E+00  0.00000000E+00  0.00000000E+00
  0.00000000E+00  0.00000000E+00  0.00000000E+00
  0.00000000E+00  0.00000000E+00  0.00000000E+00
  0.00000000E+00  0.00000000E+00  0.00000000E+00
  0.00000000E+00  0.00000000E+00  0.00000000E+00
  0.00000000E+00  0.00000000E+00  0.00000000E+00
  0.00000000E+00  0.00000000E+00  0.00000000E+00
  0.00000000E+00  0.00000000E+00  0.00000000E+00
  0.00000000E+00  0.00000000E+00  0.00000000E+00
  0.00000000E+00  0.00000000E+00  0.00000000E+00
  0.00000000E+00  0.00000000E+00  0.00000000E+00
  0.00000000E+00  0.00000000E+00  0.00000000E+00
  0.00000000E+00  0.00000000E+00  0.00000000E+00
  0.00000000E+00  0.00000000E+00  0.00000000E+00
  0.00000000E+00  0.00000000E+00  0.00000000E+00
  0.00000000E+00  0.00000000E+00  0.00000000E+00
  0.00000000E+00  0.00000000E+00  0.00000000E+00
  0.00000000E+00  0.00000000E+00  0.00000000E+00
  0.00000000E+00  0.00000000E+00  0.00000000E+00
  0.00000000E+00  0.00000000E+00  0.00000000E+00
  0.00000000E+00  0.00000000E+00  0.00000000E+00
  0.00000000E+00  0.00000000E+00  0.00000000E+00
  0.00000000E+00  0.00000000E+00  0.00000000E+00
  0.00000000E+00  0.00000000E+00  0.00000000E+00
  0.00000000E+00  0.00000000E+00  0.00000000E+00
  0.00000000E+00  0.00000000E+00  0.00000000E+00
  0.00000000E+00  0.00000000E+00  0.00000000E+00
  0.00000000E+00  0.00000000E+00  0.00000000E+00
  0.00000000E+00  0.00000000E+00  0.00000000E+00
  0.00000000E+00  0.00000000E+00  0.00000000E+00
  0.00000000E+00  0.00000000E+00  0.00000000E+00
  0.00000000E+00  0.00000000E+00  0.00000000E+00
  0.00000000E+00  0.00000000E+00  0.00000000E+00
  0.00000000E+00  0.00000000E+00  0.00000000E+00
  0.00000000E+00  0.00000000E+00  0.00000000E+00
  0.00000000E+00  0.00000000E+00  0.00000000E+00
  0.00000000E+00  0.00000000E+00  0.00000000E+00
  0.00000000E+00  0.00000000E+00  0.00000000E+00
  0.00000000E+00  0.00000000E+00  0.00000000E+00
  0.00000000E+00  0.00000000E+00  0.00000000E+00
  0.00000000E+00  0.00000000E+00  0.00000000E+00
  0.00000000E+00  0.00000000E+00  0.00000000E+00
  0.00000000E+00  0.00000000E+00  0.00000000E+00
  0.00000000E+00  0.00000000E+00  0.00000000E+00
  0.00000000E+00  0.00000000E+00  0.00000000E+00
  0.00000000E+00  0.00000000E+00  0.00000000E+00
  0.00000000E+00  0.00000000E+00  0.00000000E+00
  0.00000000E+00  0.00000000E+00  0.00000000E+00
  0.00000000E+00  0.00000000E+00  0.00000000E+00
  0.00000000E+00  0.00000000E+00  0.00000000E+00
  0.00000000E+00  0.00000000E+00  0.00000000E+00
  0.00000000E+00  0.00000000E+00  0.00000000E+00
  0.00000000E+00  0.00000000E+00  0.00000000E+00
  0.00000000E+00  0.00000000E+00  0.00000000E+00
  0.00000000E+00  0.00000000E+00  0.00000000E+00
  0.00000000E+00  0.00000000E+00  0.00000000E+00
  0.00000000E+00  0.00000000E+00  0.00000000E+00
  0.00000000E+00  0.00000000E+00  0.00000000E+00
  0.00000000E+00  0.00000000E+00  0.00000000E+00
  0.00000000E+00  0.00000000E+00  0.00000000E+00
  0.00000000E+00  0.00000000E+00  0.00000000E+00
  0.00000000E+00  0.00000000E+00  0.00000000E+00
  0.00000000E+00  0.00000000E+00  0.00000000E+00
  0.00000000E+00  0.00000000E+00  0.00000000E+00
  0.00000000E+00  0.00000000E+00  0.00000000E+00
  0.00000000E+00  0.00000000E+00  0.00000000E+00
  0.00000000E+00  0.00000000E+00  0.00000000E+00
  0.00000000E+00  0.00000000E+00  0.00000000E+00
  0.00000000E+00  0.00000000E+00  0.00000000E+00
  0.00000000E+00  0.00000000E+00  0.00000000E+00
  0.00000000E+00  0.00000000E+00  0.00000000E+00
  0.00000000E+00  0.00000000E+00  0.00000000E+00
  0.00000000E+00  0.00000000E+00  0.00000000E+00
  0.00000000E+00  0.00000000E+00  0.00000000E+00
  0.00000000E+00  0.00000000E+00  0.00000000E+00
  0.00000000E+00  0.00000000E+00  0.00000000E+00
  0.00000000E+00  0.00000000E+00  0.00000000E+00
  0.00000000E+00  0.00000000E+00  0.00000000E+00
  0.00000000E+00  0.00000000E+00  0.00000000E+00
  0.00000000E+00  0.00000000E+00  0.00000000E+00
  0.00000000E+00  0.00000000E+00  0.00000000E+00
  0.00000000E+00  0.00000000E+00  0.00000000E+00
  0.00000000E+00  0.00000000E+00  0.00000000E+00
  0.00000000E+00  0.00000000E+00  0.00000000E+00
  0.00000000E+00  0.00000000E+00  0.00000000E+00
  0.00000000E+00  0.00000000E+00  0.00000000E+00
  0.00000000E+00  0.00000000E+00  0.00000000E+00
  0.00000000E+00  0.00000000E+00  0.00000000E+00
  0.00000000E+00  0.00000000E+00  0.00000000E+00
  0.00000000E+00  0.00000000E+00  0.00000000E+00
  0.00000000E+00  0.00000000E+00  0.00000000E+00
  0.00000000E+00  0.00000000E+00  0.00000000E+00
  0.00000000E+00  0.00000000E+00  0.00000000E+00
  0.00000000E+00  0.00000000E+00  0.00000000E+00
  0.00000000E+00  0.00000000E+00  0.00000000E+00
  0.00000000E+00  0.00000000E+00  0.00000000E+00
  0.00000000E+00  0.00000000E+00  0.00000000E+00
  0.00000000E+00  0.00000000E+00  0.00000000E+00
  0.00000000E+00  0.00000000E+00  0.00000000E+00
  0.00000000E+00  0.00000000E+00  0.00000000E+00
  0.00000000E+00  0.00000000E+00  0.00000000E+00
  0.00000000E+00  0.00000000E+00  0.00000000E+00
  0.00000000E+00  0.00000000E+00  0.00000000E+00
  0.00000000E+00  0.00000000E+00  0.00000000E+00
  0.00000000E+00  0.00000000E+00  0.00000000E+00
  0.00000000E+00  0.00000000E+00  0.00000000E+00
  0.00000000E+00  0.00000000E+00  0.00000000E+00
  0.00000000E+00  0.00000000E+00  0.00000000E+00
  0.00000000E+00  0.00000000E+00  0.00000000E+00
  0.00000000E+00  0.00000000E+00  0.00000000E+00
  0.00000000E+00  0.00000000E+00  0.00000000E+00
  0.00000000E+00  0.00000000E+00  0.00000000E+00
  0.00000000E+00  0.00000000E+00  0.00000000E+00
  0.00000000E+00  0.00000000E+00  0.00000000E+00
